# vtk DataFile Version 3.0
iRIC output t = 103200
ASCII
DATASET UNSTRUCTURED_GRID
POINTS 946 double
0.530845 29.8092 0 0.464167 0.524323 0 29.6025 0.390907 0 
29.6692 29.6758 0 0.494415 13.8093 0 29.6358 15.0334 0 
16.464 0.451065 0 29.6207 8.39089 0 18.6272 11.7372 0 
24.6291 11.7235 0 29.6283 11.7121 0 27.1325 13.3784 0 
27.1249 10.0572 0 29.6321 13.3727 0 28.3842 14.2059 0 
28.3804 12.5453 0 29.634 14.203 0 29.6525 22.3546 0 
29.6302 12.5424 0 28.7314 13.3748 0 26.9262 11.7183 0 
28.2757 11.0373 0 25.5292 17.164 0 27.4458 12.4966 0 
25.7799 12.7036 0 25.7754 10.7382 0 27.3747 10.9295 0 
29.6245 10.0515 0 28.7591 11.7614 0 26.6822 15.42 0 
23.014 14.7855 0 25.9315 11.7205 0 22.5478 8.14285 0 
29.6264 10.8818 0 28.374 9.7562 0 28.8729 10.4388 0 
29.6116 4.3909 0 29.6226 9.22119 0 28.7067 8.80812 0 
29.6162 6.39089 0 28.613 7.39318 0 27.2998 14.4858 0 
25.8397 14.1918 0 26.6339 14.0201 0 29.6442 18.694 0 
24.164 13.4352 0 23.9208 9.74003 0 29.6184 7.39089 0 
26.9532 8.21362 0 27.6718 8.97738 0 27.901 8.04182 0 
27.1281 6.47815 0 27.7391 7.14897 0 28.3559 5.97338 0 
28.8414 6.61864 0 23.0333 0.420986 0 29.6139 5.39089 0 
28.6196 4.89316 0 26.3179 0.405946 0 29.6071 2.3909 0 
28.4835 3.39346 0 28.8494 4.11627 0 29.6093 3.3909 0 
25.0815 15.615 0 29.64 16.8637 0 24.7997 12.6888 0 
25.1025 13.5906 0 24.8925 14.6007 0 24.0119 15.2896 0 
23.8633 14.3439 0 24.1609 16.7203 0 24.6562 10.5956 0 
25.8682 9.24446 0 26.7694 9.10651 0 25.3059 9.95924 0 
26.4386 4.3351 0 27.3882 5.1649 0 27.5392 4.03393 0 
26.4915 2.36704 0 26.763 3.35908 0 24.989 3.31138 0 
27.639 2.58619 0 25.8832 3.06667 0 24.6756 0.413466 0 
25.138 1.80443 0 27.9602 0.398427 0 28.6153 2.41029 0 
27.9499 1.51437 0 29.6048 1.3909 0 28.6025 0.395486 0 
27.139 0.402187 0 26.7328 1.35744 0 28.7874 1.58741 0 
25.9713 1.70908 0 25.4967 0.409706 0 25.8311 15.1008 0 
25.9648 16.1989 0 27.7031 17.0801 0 26.6143 17.0729 0 
28.1047 15.6892 0 27.1641 16.2676 0 27.141 19.7305 0 
27.9846 14.8986 0 26.191 18.5378 0 26.1227 17.7244 0 
24.9953 16.4791 0 26.2588 10.0185 0 24.8907 7.12923 0 
23.2533 2.37892 0 29.6379 15.9485 0 28.6293 16.5941 0 
29.6421 17.7788 0 28.3808 18.2393 0 28.8121 17.4631 0 
29.6484 20.5243 0 27.2497 18.1229 0 27.7348 18.9632 0 
28.4048 20.0952 0 28.7621 19.1625 0 29.6463 19.6091 0 
28.636 21.4417 0 27.4742 20.9481 0 28.8902 20.705 0 
29.6504 21.4394 0 15.1 29.7425 0 29.6609 26.0152 0 
24.0276 21.2369 0 22.3846 29.7092 0 27.0855 24.1907 0 
25.7241 20.7727 0 27.4619 22.5912 0 26.6328 20.524 0 
26.4886 21.7817 0 25.9036 19.6439 0 24.6052 20.0161 0 
27.8098 21.7722 0 28.5685 22.578 0 29.6567 24.1849 0 
28.027 23.5683 0 29.6546 23.2697 0 28.369 25.1088 0 
27.903 24.404 0 26.1861 23.1351 0 25.1489 22.0027 0 
24.8401 20.8743 0 21.0275 19.0704 0 26.6845 22.536 0 
27.024 23.3322 0 23.792 26.0855 0 25.7605 21.5392 0 
22.7286 19.8752 0 25.2629 24.8325 0 23.6399 20.3064 0 
26.0508 24.1613 0 23.3084 23.494 0 24.0056 22.473 0 
24.8888 23.486 0 21.995 21.8486 0 22.7509 21.0066 0 
23.0416 22.0279 0 21.3552 20.5138 0 22.1617 20.4523 0 
24.7675 22.7003 0 24.1034 24.4294 0 24.0976 23.2844 0 
24.4336 25.3488 0 26.0269 29.6925 0 26.1509 27.1829 0 
25.0275 26.5138 0 22.5012 24.9855 0 26.2012 25.821 0 
27.2268 25.3224 0 26.4189 24.9646 0 28.1051 26.8588 0 
27.1184 26.4036 0 27.933 25.938 0 29.665 27.8455 0 
28.7844 26.2553 0 29.6629 26.9303 0 24.2057 29.7008 0 
23.1944 24.3964 0 23.5449 25.2227 0 25.8037 26.4882 0 
25.3386 25.7002 0 23.8516 27.91 0 24.1717 26.9864 0 
25.0881 27.8213 0 26.1843 28.4424 0 24.5302 28.7062 0 
25.1163 29.6966 0 25.4026 28.8586 0 27.2545 27.7838 0 
27.848 29.6841 0 28.4542 28.0334 0 26.9375 29.6883 0 
27.3886 28.7848 0 28.8667 27.2716 0 29.6671 28.7606 0 
28.6692 29.6804 0 28.2645 28.8957 0 25.7381 8.02111 0 
24.7055 8.74956 0 26.0347 6.89077 0 25.1352 5.43885 0 
26.8227 7.32393 0 26.2336 5.76294 0 25.3207 6.32855 0 
25.8671 4.98168 0 24.9829 4.38056 0 22.2918 5.30795 0 
23.5878 3.83801 0 24.6649 9.52354 0 23.5681 8.65451 0 
23.5901 7.33756 0 24.0456 6.13016 0 24.1949 8.00633 0 
25.6966 3.9042 0 22.2937 6.73679 0 23.1919 6.49775 0 
22.7859 7.37383 0 23.8585 1.31955 0 24.6358 1.19903 0 
24.2411 2.24064 0 24.1185 3.12281 0 24.3826 18.3682 0 
25.2465 18.8828 0 23.857 19.2782 0 25.1923 17.9912 0 
22.5353 17.908 0 23.3929 18.4034 0 22.5334 18.9013 0 
23.4051 17.3921 0 22.1394 16.2494 0 23.1097 15.8358 0 
22.5949 17.0172 0 21.1306 17.3667 0 29.6588 25.1 0 
18.0794 22.9049 0 21.7206 3.49808 0 23.956 4.95626 0 
23.0208 4.64443 0 23.2353 5.55918 0 22.106 4.37153 0 
19.6763 5.3403 0 20.7317 4.45612 0 20.9904 5.83689 0 
19.7486 0.436025 0 20.4729 5.21921 0 21.425 5.04085 0 
21.8242 6.02301 0 19.2146 8.54904 0 19.8381 2.54438 0 
19.8015 6.9959 0 20.6148 3.34606 0 19.2288 3.91175 0 
21.3909 0.428506 0 19.8082 3.35048 0 21.3654 1.98373 0 
21.252 2.80917 0 22.2376 2.52416 0 22.3521 1.36539 0 
22.8579 3.23743 0 21.5671 1.20922 0 20.4422 1.32979 0 
22.2121 0.424746 0 20.5581 2.14493 0 20.1254 6.13887 0 
19.8672 4.49615 0 23.113 1.59621 0 21.5969 18.2499 0 
19.3813 14.7732 0 18.7262 20.3516 0 21.073 7.11094 0 
21.8719 7.53902 0 20.9865 9.2103 0 21.0248 8.16042 0 
21.7928 8.71406 0 22.284 10.4152 0 21.8024 9.63275 0 
22.6966 9.16404 0 20.6332 10.8918 0 21.0431 10.1 0 
19.655 9.88325 0 20.1843 8.65541 0 19.7792 7.87494 0 
18.5316 7.40348 0 23.4403 10.8969 0 23.0612 9.97791 0 
19.502 11.0103 0 20.263 12.8161 0 19.6087 12.0286 0 
20.5877 11.8808 0 21.6844 11.4357 0 18.825 13.3454 0 
18.9299 12.5162 0 17.2418 12.7238 0 17.4483 9.8718 0 
18.5494 10.3071 0 17.6091 11.0754 0 18.3413 9.22349 0 
16.8806 8.15077 0 17.4395 8.92055 0 15.9558 9.41004 0 
17.8294 8.04963 0 17.2018 6.66301 0 18.8569 6.23482 0 
17.7504 11.972 0 16.3977 10.6246 0 16.6194 11.7548 0 
14.3202 13.9161 0 14.3252 11.6179 0 15.6704 13.0488 0 
15.49 11.3895 0 16.3936 12.5843 0 15.0591 12.2758 0 
14.7703 13.1323 0 13.2227 12.7646 0 14.6412 10.1452 0 
15.4951 10.4744 0 14.7989 10.9493 0 18.081 6.64845 0 
17.6113 4.84241 0 18.0671 5.68797 0 18.6726 4.81596 0 
16.6375 9.8497 0 17.6095 2.3707 0 20.5774 15.8531 0 
20.0644 20.0479 0 20.859 19.8675 0 19.7999 21.9821 0 
18.9038 18.0338 0 19.5691 20.9653 0 20.5954 21.267 0 
18.5568 21.7297 0 19.8222 18.846 0 19.0262 22.6049 0 
20.6985 23.8904 0 20.0181 23.0451 0 18.9695 24.0702 0 
21.2096 22.7824 0 19.8253 23.8968 0 20.2791 26.2458 0 
19.6342 25.152 0 20.6495 22.1273 0 15.1523 21.0313 0 
19.2559 19.5855 0 17.7511 19.1112 0 20.0171 17.7001 0 
20.7133 18.2445 0 19.0174 16.3884 0 20.3522 16.7933 0 
19.2703 17.2325 0 22.3304 22.9278 0 22.2364 23.9716 0 
21.4255 24.7249 0 21.6627 26.0963 0 20.4968 24.8001 0 
18.7423 29.7258 0 16.3874 26.4016 0 16.9665 20.8347 0 
21.4859 23.5818 0 22.727 26.0278 0 23.0468 27.1138 0 
22.5907 28.3796 0 23.2952 29.705 0 23.5965 28.8147 0 
20.9094 25.6015 0 17.8948 25.4755 0 17.9457 20.9551 0 
17.323 21.9773 0 17.5583 20.0638 0 15.8931 19.3981 0 
16.8483 19.4243 0 16.4412 16.8405 0 16.8924 18.0934 0 
20.5635 29.7175 0 21.13 27.643 0 18.7023 24.9794 0 
18.9468 26.2943 0 15.8244 23.9714 0 16.1445 21.7181 0 
15.3449 17.9431 0 17.8068 17.0563 0 17.8996 18.1148 0 
21.474 29.7133 0 21.0142 28.726 0 19.6482 28.7032 0 
21.7372 28.2556 0 21.0329 26.7445 0 22.0144 27.0681 0 
17.6872 26.8275 0 16.8201 23.1595 0 17.6562 24.1781 0 
14.7519 22.6697 0 16.1543 17.6516 0 17.0647 17.3236 0 
17.4157 15.1021 0 19.6529 29.7217 0 19.6539 27.395 0 
17.2178 26.0635 0 16.3534 25.1292 0 18.1683 26.2094 0 
18.1593 28.2968 0 16.6177 22.3753 0 18.2761 23.6772 0 
16.74 24.0777 0 15.2659 21.9272 0 18.0129 15.9988 0 
17.012 16.0182 0 18.4222 15.079 0 15.2984 15.438 0 
17.8949 14.0429 0 16.3422 15.176 0 18.74 14.2008 0 
17.9756 13.1817 0 16.0021 16.0314 0 14.8366 16.6995 0 
15.5561 14.2546 0 16.6371 13.7514 0 16.8374 14.5357 0 
19.6263 26.6353 0 20.3024 28.0519 0 18.6217 27.2807 0 
19.0198 28.0751 0 7.81543 29.7759 0 17.2075 24.9313 0 
16.9212 29.7342 0 13.5235 15.5035 0 14.769 14.7029 0 
13.247 25.8488 0 16.586 27.9918 0 14.4244 15.8333 0 
11.8695 18.6382 0 14.7269 25.1726 0 16.8619 27.1498 0 
13.5401 17.9552 0 13.5857 16.729 0 15.5309 24.8052 0 
15.5179 25.8402 0 15.1503 27.3636 0 15.6005 26.6662 0 
14.3845 26.3752 0 14.4401 17.5873 0 12.2953 17.295 0 
11.4577 29.7592 0 14.0401 25.6271 0 13.1129 23.8396 0 
13.8489 24.592 0 14.1508 23.5606 0 14.9019 24.1153 0 
12.5694 16.1662 0 9.39147 15.9921 0 11.972 14.2879 0 
10.9643 16.3741 0 12.5603 15.135 0 11.8068 16.5787 0 
11.4127 15.3043 0 13.1458 14.1004 0 10.3471 15.4865 0 
13.8364 14.6669 0 12.4303 13.3891 0 13.6468 13.4591 0 
9.77983 12.6039 0 11.0322 13.2425 0 9.07574 14.2396 0 
10.863 14.3397 0 11.882 11.8786 0 9.51278 15.0655 0 
7.99795 15.3384 0 12.4059 12.5432 0 13.0747 11.4772 0 
13.0774 17.3241 0 12.6424 18.1442 0 13.4896 19.9422 0 
12.7637 19.1856 0 11.0886 21.5195 0 11.5847 20.1075 0 
12.5455 20.1215 0 13.3292 21.6723 0 13.1605 20.7842 0 
14.325 21.5914 0 12.2207 21.4228 0 14.2518 20.5923 0 
13.7232 22.6238 0 11.7817 22.9579 0 11.6066 20.9083 0 
14.626 19.3817 0 14.2919 18.5095 0 11.709 22.1068 0 
12.7006 22.4899 0 13.6307 19.0802 0 13.2789 29.7508 0 
11.0688 17.6453 0 10.7998 12.151 0 9.0697 9.62989 0 
9.70077 11.051 0 10.0388 11.8122 0 13.6419 12.0642 0 
14.0528 12.7602 0 15.2505 20.0912 0 16.1767 20.3055 0 
15.2671 18.8031 0 13.0339 27.8017 0 9.95595 17.0969 0 
11.6665 9.26514 0 13.4691 26.8611 0 14.1236 27.735 0 
11.8544 26.6849 0 14.999 28.5504 0 13.6368 28.7159 0 
12.6914 26.5013 0 12.0001 25.3498 0 14.1894 29.7467 0 
12.8628 24.8204 0 11.8616 24.1565 0 10.1491 16.3016 0 
9.59149 19.2399 0 7.84369 17.4795 0 12.0972 10.5452 0 
15.7105 28.0381 0 16.0106 29.7383 0 16.1913 28.8298 0 
8.3305 25.6249 0 12.3664 23.5209 0 10.0928 18.2227 0 
10.7941 19.2004 0 8.84048 18.2377 0 8.84208 16.9694 0 
7.92643 16.4094 0 0.51263 21.8092 0 5.07721 15.6812 0 
8.57757 15.915 0 6.5694 15.7809 0 6.89019 16.8675 0 
5.76466 16.6091 0 5.71834 19.7421 0 0.503523 17.8092 0 
5.99659 18.1794 0 3.25708 17.7483 0 6.18724 17.349 0 
4.38874 16.9099 0 5.18392 17.5557 0 12.3406 11.2686 0 
10.7882 10.2732 0 11.1383 11.21 0 13.2288 9.45197 0 
16.0738 27.3186 0 9.60311 23.7052 0 10.1908 25.8279 0 
10.2835 20.4435 0 11.0866 18.4502 0 7.70427 19.8716 0 
0.498969 15.8093 0 9.86275 10.1284 0 10.2529 8.62759 0 
11.5223 10.0262 0 13.1102 10.4614 0 13.8199 10.0331 0 
14.3994 8.85251 0 12.4033 9.72974 0 10.7933 23.6258 0 
11.1873 25.9366 0 10.8058 24.8127 0 9.68231 24.826 0 
9.26717 25.6667 0 9.63658 29.7675 0 8.70369 27.7786 0 
8.75355 26.6608 0 8.48741 24.3473 0 10.0722 27.2797 0 
4.17314 29.7925 0 9.28413 27.2445 0 10.9184 26.8478 0 
11.6207 28.113 0 6.18321 27.1062 0 12.3683 29.755 0 
7.41949 26.6013 0 12.5998 28.7439 0 11.7685 28.9588 0 
10.4699 28.75 0 9.62414 28.1964 0 8.726 29.7717 0 
8.26617 28.7802 0 5.99428 29.7842 0 7.46946 27.8358 0 
9.15281 28.9714 0 9.38197 21.9573 0 7.72293 18.6726 0 
8.93628 20.4174 0 2.77277 15.1972 0 10.7688 9.36963 0 
15.0836 9.39349 0 15.5327 8.12229 0 8.46408 0.487694 0 
5.82643 24.4665 0 10.5472 29.7634 0 10.7439 27.8869 0 
8.05815 27.1937 0 6.95838 27.2382 0 6.38835 28.2431 0 
7.21498 28.9042 0 4.55915 27.9862 0 6.90486 29.78 0 
6.40588 29.0685 0 5.26933 28.8911 0 5.51604 27.8135 0 
4.77537 26.4466 0 5.08371 29.7884 0 4.34553 28.8849 0 
0.521738 25.8092 0 2.35199 29.8009 0 2.74549 28.0299 0 
3.26257 29.7967 0 3.65807 28.2468 0 2.80349 28.972 0 
3.49622 26.8995 0 0.526292 27.8092 0 1.57071 28.575 0 
10.145 21.3863 0 10.4682 22.5064 0 8.43462 22.9651 0 
8.55732 19.2853 0 6.74716 19.2571 0 6.98288 17.995 0 
9.61774 20.0256 0 3.84914 15.8003 0 16.1965 8.61758 0 
12.9989 5.43444 0 16.2258 7.23082 0 14.4729 6.58317 0 
15.2467 7.18478 0 14.217 7.71074 0 15.8089 5.66322 0 
15.7689 6.51309 0 13.0737 6.85848 0 13.8343 7.03109 0 
7.17609 24.8347 0 4.31043 27.1663 0 1.89935 26.6534 0 
3.33574 24.4134 0 0.528568 28.8092 0 9.63089 22.8137 0 
8.82432 23.6423 0 7.71941 21.501 0 3.37084 16.7189 0 
1.8647 17.0735 0 2.68072 17.1637 0 2.14575 18.2674 0 
2.37819 16.1641 0 1.39651 16.2094 0 0.501246 16.8093 0 
4.27318 13.7815 0 7.95803 24.9307 0 7.43174 25.6995 0 
6.87657 23.2747 0 2.64086 27.1459 0 1.78936 27.6235 0 
3.76782 25.6337 0 8.0818 20.6829 0 8.63614 21.4178 0 
1.38665 17.8161 0 0.508077 19.8092 0 0.5058 18.8092 0 
1.57967 19.3068 0 1.2594 18.5904 0 3.47572 19.6656 0 
1.62934 20.8067 0 2.5855 19.1808 0 1.28271 20.0674 0 
0.510353 20.8092 0 3.42428 18.7004 0 4.26154 18.0626 0 
2.5713 20.2665 0 4.42102 22.0695 0 2.8453 21.8357 0 
2.42385 21.1008 0 1.67675 22.0175 0 2.46588 23.2434 0 
2.34329 22.4554 0 4.37751 14.8574 0 3.44336 14.405 0 
5.9615 14.1608 0 2.01552 13.8763 0 0.496692 14.8093 0 
1.23449 14.3076 0 5.29268 14.7892 0 7.76742 23.6827 0 
6.64378 24.1281 0 2.80373 26.0889 0 0.517184 23.8092 0 
1.73253 25.3795 0 0.514907 22.8092 0 1.4279 23.3072 0 
2.00861 24.2804 0 0.519461 24.8092 0 4.57638 24.6608 0 
1.30087 26.0839 0 0.524015 26.8092 0 2.67171 25.1248 0 
4.18602 23.3839 0 5.34371 25.4793 0 6.39333 25.5363 0 
5.68753 26.3319 0 3.30868 23.5252 0 5.51563 22.9434 0 
6.60097 26.3631 0 4.7314 22.8032 0 5.88387 21.3597 0 
5.08648 23.8242 0 5.32182 22.0636 0 6.3901 22.312 0 
6.79745 21.4848 0 7.36899 22.4216 0 6.64489 20.3738 0 
23.3499 12.295 0 23.817 11.6232 0 22.8703 13.4982 0 
22.68 11.5497 0 22.056 12.5942 0 21.1464 12.5987 0 
21.0882 14.2655 0 21.6054 13.4491 0 22.1023 14.3359 0 
22.198 15.2912 0 21.441 15.7258 0 23.4969 13.0508 0 
19.8037 13.7863 0 18.6929 2.85351 0 18.099 3.81906 0 
18.1063 0.443545 0 18.9489 1.52605 0 16.3375 3.60752 0 
18.3775 2.10427 0 17.1826 4.01023 0 16.5358 4.87001 0 
17.0924 3.11142 0 12.464 0.469379 0 16.1788 1.92284 0 
16.7614 5.80642 0 19.7361 1.7361 0 18.9275 0.439785 0 
18.642 18.909 0 19.6467 15.6816 0 17.8317 29.73 0 
17.2519 28.7671 0 12.2217 27.4782 0 0.479291 7.16679 0 
1.44142 29.805 0 14.44 5.10536 0 15.4217 4.39817 0 
15.2191 5.15194 0 13.5008 2.76659 0 14.2595 3.81986 0 
13.5604 4.57343 0 11.3448 3.74216 0 12.3601 4.40428 0 
14.9058 2.55435 0 10.6406 6.18367 0 12.4079 3.22149 0 
13.2397 3.67961 0 10.4641 0.478537 0 12.4766 1.84626 0 
14.2578 3.02118 0 15.3742 3.41739 0 15.9985 2.78964 0 
11.228 5.03078 0 14.464 0.460222 0 11.4641 0.473958 0 
10.9706 1.89777 0 11.5165 2.74715 0 12.1034 5.27658 0 
7.94381 4.08351 0 13.7127 1.50075 0 9.67721 4.24062 0 
10.1937 2.99731 0 13.464 0.464801 0 14.7878 1.48558 0 
15.464 0.455643 0 10.6108 4.32524 0 10.0551 5.2636 0 
8.2518 7.05745 0 8.71861 5.17604 0 9.35031 6.35842 0 
8.89877 3.18833 0 9.45816 1.65341 0 12.9493 1.15346 0 
15.6133 1.29061 0 8.79813 4.29865 0 6.81782 5.70304 0 
10.1426 7.35738 0 8.41354 6.09896 0 7.48322 6.43486 0 
7.74814 5.36714 0 6.19035 8.81658 0 7.05782 7.74571 0 
9.36249 5.59198 0 9.6035 3.48107 0 4.46413 0.506009 0 
10.1546 2.14547 0 11.6409 7.30064 0 9.05694 8.09159 0 
7.65927 9.1197 0 4.98544 6.95376 0 6.4641 0.496851 0 
10.8784 6.9771 0 9.12121 7.21105 0 9.43171 8.85768 0 
8.03325 8.05809 0 7.0032 8.58825 0 5.89224 7.68831 0 
6.42524 6.7284 0 4.31484 8.7086 0 4.93684 7.94074 0 
5.24875 8.82927 0 3.45088 7.37289 0 5.75371 11.3594 0 
5.73604 10.0475 0 7.1721 2.30332 0 6.7678 9.729 0 
0.486853 10.488 0 7.87688 3.05516 0 6.47533 3.66273 0 
6.95651 4.63086 0 8.30609 1.94657 0 5.12261 4.9387 0 
9.02598 2.36529 0 7.46409 0.492273 0 6.96798 1.34135 0 
5.29433 2.19914 0 5.93405 1.38568 0 8.74369 1.25597 0 
9.46407 0.483115 0 5.9928 4.5062 0 4.97717 3.55442 0 
5.72203 5.87132 0 6.23173 2.27805 0 5.46411 0.50143 0 
4.96781 1.30914 0 0.471729 3.84556 0 2.46415 0.515166 0 
3.26463 2.4389 0 3.83969 1.45713 0 4.28646 2.37812 0 
2.79638 1.50533 0 3.46414 0.510587 0 0.467948 2.18494 0 
1.46416 0.519745 0 1.84306 2.5677 0 0.466444 1.52432 0 
3.75149 10.7303 0 5.7649 3.07395 0 3.17867 4.44316 0 
4.85612 10.7154 0 4.66263 9.69121 0 4.45145 12.227 0 
4.93893 11.5475 0 4.24229 4.33141 0 3.61283 3.4578 0 
2.46301 3.53951 0 0.47551 5.50617 0 1.43916 3.509 0 
0.469839 3.01525 0 0.47362 4.67587 0 1.8716 5.08784 0 
1.93026 4.22313 0 4.32027 3.14921 0 12.9891 8.16492 0 
13.592 8.7185 0 12.4797 7.47598 0 11.8739 8.28003 0 
10.9617 7.97958 0 12.4987 8.87338 0 5.08184 18.8227 0 
4.22501 19.1417 0 4.57206 20.4358 0 3.55182 20.9423 0 
4.33428 21.2376 0 3.66235 21.7558 0 3.62058 22.6675 0 
4.88464 19.6584 0 5.44668 20.5872 0 7.01428 14.6899 0 
7.38155 12.6471 0 8.00105 14.2635 0 6.89557 13.6141 0 
8.51365 13.1401 0 5.77244 12.7664 0 7.72911 13.4608 0 
8.45624 11.7257 0 7.92386 10.4636 0 9.36879 13.3963 0 
9.98102 14.0816 0 6.52849 12.0528 0 6.84299 10.9217 0 
7.65029 11.3223 0 5.21139 13.5525 0 8.95274 12.4139 0 
8.14219 12.4468 0 8.24606 9.70218 0 8.78357 10.8443 0 
10.2153 13.2972 0 20.3491 14.9037 0 17.2852 0.447305 0 
17.6918 1.36778 0 13.8537 5.85767 0 11.7059 1.35521 0 
11.6929 6.24764 0 2.18677 9.13779 0 0.490634 12.1486 0 
3.86361 5.8652 0 4.79301 5.80948 0 3.77805 5.03043 0 
2.83956 5.54839 0 3.11526 6.47067 0 1.95496 7.41582 0 
1.91129 6.2519 0 1.29025 6.85798 0 1.29141 5.69033 0 
1.75057 1.52578 0 3.10368 12.8599 0 16.8013 1.27995 0 
12.5519 6.1719 0 3.1663 8.50422 0 3.23042 9.67733 0 
2.30422 8.24539 0 0.483072 8.82741 0 0.481182 7.9971 0 
1.35334 8.41027 0 2.0981 10.8931 0 3.94366 9.9798 0 
2.38793 10.0278 0 1.41965 10.1847 0 0.484963 9.65772 0 
1.30216 9.30061 0 0.492525 12.979 0 1.76469 12.5609 0 
1.31226 13.3288 0 1.36729 11.6142 0 2.62292 11.8652 0 
2.94936 11.0613 0 3.58808 11.7889 0 2.33985 13.1328 0 
4.10282 6.74102 0 3.97301 12.9596 0 15.7506 22.9395 0 
1.73142 15.2231 0 
CELLS 1766 7064
3 73 48 49 
3 21 20 26 
3 22 227 70 
3 41 11 14 
3 303 299 301 
3 8 288 290 
3 52 53 54 
3 320 303 304 
3 31 9 25 
3 9 71 25 
3 19 11 15 
3 13 19 18 
3 5 14 16 
3 106 26 25 
3 28 33 10 
3 226 225 134 
3 16 19 13 
3 98 22 96 
3 23 15 11 
3 23 21 28 
3 11 19 14 
3 19 16 14 
3 104 115 103 
3 28 18 15 
3 18 19 15 
3 20 23 24 
3 20 31 25 
3 35 34 27 
3 18 28 10 
3 101 131 133 
3 65 9 31 
3 24 23 11 
3 21 23 20 
3 11 41 43 
3 24 11 43 
3 286 46 71 
3 38 7 37 
3 25 26 20 
3 34 26 12 
3 23 28 15 
3 21 26 34 
3 28 21 35 
3 97 100 99 
3 42 43 95 
3 232 723 233 
3 274 278 281 
3 20 24 31 
3 31 24 65 
3 242 244 238 
3 36 57 61 
3 12 106 73 
3 33 28 35 
3 37 27 34 
3 33 35 27 
3 21 34 35 
3 106 72 73 
3 57 36 56 
3 38 37 34 
3 7 38 40 
3 38 34 49 
3 47 7 40 
3 52 40 50 
3 41 14 102 
3 95 43 29 
3 95 96 63 
3 67 66 42 
3 29 43 41 
3 24 43 42 
3 65 24 66 
3 98 96 100 
3 294 289 293 
3 274 276 278 
3 49 50 38 
3 200 72 201 
3 54 47 40 
3 39 54 53 
3 12 49 34 
3 50 49 48 
3 204 52 50 
3 38 50 40 
3 48 73 200 
3 253 258 238 
3 204 50 48 
3 52 51 53 
3 75 77 76 
3 56 39 53 
3 47 54 39 
3 52 54 40 
3 81 77 79 
3 93 58 91 
3 57 56 53 
3 86 59 62 
3 36 61 62 
3 57 77 61 
3 53 76 57 
3 77 81 60 
3 77 57 76 
3 60 86 62 
3 69 68 30 
3 60 62 61 
3 69 67 68 
3 66 24 42 
3 110 99 109 
3 65 45 725 
3 42 95 67 
3 45 65 66 
3 67 63 68 
3 45 66 67 
3 105 70 63 
3 68 63 70 
3 716 69 30 
3 67 69 45 
3 98 115 104 
3 231 224 229 
3 286 277 287 
3 201 72 211 
3 71 74 25 
3 215 212 213 
3 12 73 49 
3 200 73 72 
3 211 71 46 
3 106 74 72 
3 202 204 200 
3 82 84 93 
3 53 51 76 
3 202 206 205 
3 79 77 75 
3 61 77 60 
3 79 82 78 
3 92 59 86 
3 216 82 79 
3 79 78 81 
3 205 207 76 
3 83 220 55 
3 90 85 87 
3 60 81 86 
3 216 79 75 
3 94 58 93 
3 82 80 84 
3 220 221 222 
3 222 108 220 
3 81 87 86 
3 93 91 78 
3 89 87 85 
3 91 81 78 
3 88 89 2 
3 58 90 91 
3 87 92 86 
3 89 88 92 
3 87 81 91 
3 87 91 90 
3 89 92 87 
3 59 92 88 
3 82 93 78 
3 221 94 84 
3 96 95 29 
3 84 94 93 
3 67 95 63 
3 41 102 29 
3 105 96 22 
3 64 113 110 
3 119 122 117 
3 100 96 29 
3 113 97 110 
3 5 99 102 
3 110 109 64 
3 99 100 29 
3 97 98 100 
3 122 121 117 
3 22 98 104 
3 5 102 14 
3 29 102 99 
3 131 101 121 
3 133 225 103 
3 115 98 97 
3 103 225 227 
3 96 105 63 
3 22 70 105 
3 26 106 12 
3 74 106 25 
3 208 239 210 
3 51 202 205 
3 80 82 216 
3 108 222 223 
3 111 44 112 
3 99 5 109 
3 97 99 110 
3 117 118 119 
3 64 111 113 
3 116 103 115 
3 111 112 113 
3 97 113 112 
3 97 112 115 
3 112 118 116 
3 116 115 112 
3 112 44 118 
3 103 116 101 
3 120 123 17 
3 101 116 117 
3 119 114 122 
3 116 118 117 
3 161 150 158 
3 118 44 119 
3 101 117 121 
3 147 138 128 
3 457 459 454 
3 123 122 114 
3 121 122 120 
3 135 136 130 
3 122 123 120 
3 170 171 174 
3 121 120 135 
3 233 30 68 
3 128 138 141 
3 131 132 129 
3 153 156 142 
3 132 131 121 
3 133 103 101 
3 120 136 135 
3 146 132 130 
3 121 135 132 
3 131 129 133 
3 146 147 142 
3 129 132 149 
3 144 134 129 
3 133 129 134 
3 134 144 152 
3 104 103 227 
3 136 120 17 
3 132 135 130 
3 141 137 140 
3 130 136 138 
3 139 138 136 
3 139 137 138 
3 236 125 177 
3 190 166 189 
3 136 17 139 
3 168 186 185 
3 137 141 138 
3 171 170 172 
3 170 182 183 
3 143 126 144 
3 143 149 146 
3 142 147 153 
3 144 129 149 
3 152 144 126 
3 126 159 158 
3 333 331 329 
3 147 146 130 
3 143 146 142 
3 138 147 130 
3 153 147 128 
3 335 338 404 
3 155 164 154 
3 146 149 132 
3 144 149 143 
3 143 155 126 
3 229 224 226 
3 171 175 174 
3 164 163 154 
3 155 159 126 
3 226 224 225 
3 128 171 172 
3 162 155 143 
3 353 360 352 
3 150 152 158 
3 162 142 156 
3 352 159 154 
3 153 151 156 
3 156 151 163 
3 154 163 180 
3 161 145 150 
3 126 158 152 
3 157 160 161 
3 154 159 155 
3 157 158 159 
3 335 237 333 
3 271 327 331 
3 157 161 158 
3 161 160 328 
3 142 162 143 
3 164 162 156 
3 151 165 163 
3 181 169 180 
3 162 164 155 
3 163 164 156 
3 168 185 148 
3 181 165 148 
3 167 168 182 
3 148 165 168 
3 140 175 171 
3 183 165 151 
3 179 364 365 
3 362 184 363 
3 342 338 340 
3 172 151 153 
3 128 141 171 
3 141 140 171 
3 177 175 140 
3 172 170 183 
3 128 172 153 
3 194 166 187 
3 187 195 194 
3 191 174 173 
3 182 174 167 
3 140 236 177 
3 174 175 173 
3 176 193 196 
3 196 177 178 
3 173 175 177 
3 163 165 181 
3 177 125 178 
3 185 186 184 
3 180 169 353 
3 181 148 361 
3 163 181 180 
3 183 182 168 
3 174 182 170 
3 165 183 168 
3 172 183 151 
3 127 363 364 
3 388 355 389 
3 186 168 167 
3 185 184 362 
3 187 186 167 
3 188 189 179 
3 191 167 174 
3 167 191 187 
3 184 186 188 
3 186 187 190 
3 186 190 188 
3 190 189 188 
3 166 190 187 
3 193 173 196 
3 199 197 198 
3 192 195 199 
3 193 191 173 
3 193 199 195 
3 193 195 191 
3 195 187 191 
3 192 194 195 
3 177 196 173 
3 176 196 178 
3 197 199 193 
3 193 176 197 
3 197 3 198 
3 192 199 198 
3 74 211 72 
3 202 200 107 
3 212 201 46 
3 200 201 215 
3 202 107 206 
3 204 202 51 
3 215 201 212 
3 208 216 207 
3 52 204 51 
3 200 204 48 
3 207 205 203 
3 76 51 205 
3 214 107 213 
3 205 206 203 
3 207 203 208 
3 76 207 75 
3 206 107 214 
3 208 210 223 
3 241 209 240 
3 261 259 108 
3 239 203 214 
3 242 261 240 
3 71 211 74 
3 46 201 211 
3 278 279 287 
3 212 32 213 
3 219 213 32 
3 206 214 203 
3 218 214 213 
3 241 240 239 
3 213 107 215 
3 200 215 107 
3 207 216 75 
3 80 216 208 
3 272 252 266 
3 260 268 259 
3 219 218 213 
3 218 217 249 
3 273 219 32 
3 218 219 217 
3 221 220 83 
3 268 220 108 
3 94 221 83 
3 222 221 84 
3 84 80 222 
3 223 222 80 
3 208 223 80 
3 223 210 261 
3 226 134 152 
3 226 230 229 
3 134 225 133 
3 225 224 227 
3 152 150 226 
3 229 230 228 
3 70 227 224 
3 104 227 22 
3 228 269 235 
3 233 231 234 
3 230 226 150 
3 231 229 228 
3 150 145 230 
3 269 230 145 
3 231 228 234 
3 224 231 70 
3 232 234 235 
3 722 723 720 
3 68 70 233 
3 231 233 70 
3 235 234 228 
3 233 234 232 
3 328 327 334 
3 350 724 235 
3 406 344 380 
3 140 137 236 
3 294 8 290 
3 247 243 267 
3 259 238 258 
3 203 239 208 
3 214 218 241 
3 242 240 209 
3 210 239 240 
3 214 241 239 
3 209 241 218 
3 245 247 248 
3 242 238 261 
3 272 273 275 
3 266 305 243 
3 248 242 209 
3 251 727 730 
3 249 245 248 
3 284 272 275 
3 248 247 244 
3 253 238 244 
3 266 247 245 
3 242 248 244 
3 249 248 209 
3 218 249 209 
3 272 249 217 
3 297 298 296 
3 247 266 243 
3 256 253 267 
3 251 253 256 
3 245 249 272 
3 252 284 285 
3 244 247 267 
3 255 263 246 
3 252 285 305 
3 256 727 251 
3 267 253 244 
3 262 263 255 
3 727 256 254 
3 253 265 258 
3 264 55 260 
3 265 253 251 
3 259 258 257 
3 260 259 257 
3 223 261 108 
3 262 260 257 
3 55 220 268 
3 261 210 240 
3 238 259 261 
3 262 257 263 
3 264 262 255 
3 257 265 263 
3 263 265 739 
3 258 265 257 
3 262 264 260 
3 739 265 251 
3 272 266 245 
3 305 266 252 
3 323 267 243 
3 256 267 254 
3 259 268 108 
3 55 268 260 
3 230 269 228 
3 348 269 145 
3 328 334 145 
3 307 312 318 
3 346 372 374 
3 235 269 348 
3 217 273 272 
3 273 32 276 
3 219 273 217 
3 275 273 276 
3 274 275 276 
3 281 282 274 
3 274 283 275 
3 283 284 275 
3 279 32 212 
3 278 276 279 
3 714 718 717 
3 718 719 292 
3 276 32 279 
3 277 292 281 
3 212 46 279 
3 287 279 46 
3 725 716 714 
3 250 283 282 
3 277 281 278 
3 281 280 282 
3 280 288 282 
3 282 288 297 
3 282 283 274 
3 284 283 250 
3 285 284 250 
3 284 252 272 
3 297 299 282 
3 305 322 323 
3 9 715 71 
3 65 714 715 
3 286 287 46 
3 278 287 277 
3 291 290 288 
3 8 298 297 
3 291 289 290 
3 289 719 721 
3 291 288 280 
3 293 289 726 
3 292 280 281 
3 291 280 292 
3 286 717 277 
3 717 715 714 
3 350 349 742 
3 414 306 294 
3 289 294 290 
3 294 293 414 
3 411 413 409 
3 250 299 303 
3 626 301 324 
3 470 542 556 
3 8 297 288 
3 299 297 296 
3 8 306 298 
3 308 298 306 
3 299 296 301 
3 282 299 250 
3 307 296 298 
3 302 318 591 
3 301 296 324 
3 303 301 300 
3 324 307 318 
3 324 318 302 
3 304 303 300 
3 303 285 250 
3 319 310 557 
3 323 322 321 
3 285 320 305 
3 320 322 305 
3 294 306 8 
3 306 295 308 
3 307 298 308 
3 312 313 314 
3 313 308 295 
3 307 308 312 
3 407 409 349 
3 271 333 368 
3 315 461 498 
3 466 469 463 
3 349 382 407 
3 314 315 498 
3 312 308 313 
3 312 310 319 
3 313 295 418 
3 313 311 314 
3 315 314 311 
3 310 312 314 
3 417 315 311 
3 309 461 315 
3 410 416 431 
3 460 469 316 
3 316 469 470 
3 544 496 495 
3 319 318 312 
3 318 317 591 
3 556 310 470 
3 318 319 317 
3 303 320 285 
3 322 304 738 
3 304 300 628 
3 739 246 263 
3 304 322 320 
3 728 323 321 
3 267 323 254 
3 305 323 243 
3 324 302 626 
3 296 307 324 
3 728 727 254 
3 731 733 734 
3 348 334 347 
3 720 901 726 
3 331 332 329 
3 345 334 327 
3 161 328 145 
3 332 328 160 
3 327 332 331 
3 353 352 154 
3 741 346 383 
3 901 742 270 
3 327 328 332 
3 329 335 333 
3 160 157 332 
3 157 339 343 
3 368 369 359 
3 271 331 333 
3 345 327 271 
3 334 330 347 
3 337 329 343 
3 337 335 329 
3 388 366 355 
3 340 335 337 
3 329 332 343 
3 337 336 340 
3 356 342 340 
3 338 342 377 
3 352 339 157 
3 336 337 339 
3 360 354 336 
3 335 340 338 
3 434 402 430 
3 377 378 401 
3 356 340 336 
3 377 401 367 
3 157 343 332 
3 337 343 339 
3 404 377 392 
3 427 431 436 
3 741 271 346 
3 334 345 741 
3 271 368 370 
3 346 370 372 
3 351 347 330 
3 724 350 326 
3 334 348 145 
3 235 348 347 
3 741 383 330 
3 311 418 417 
3 235 347 350 
3 350 347 351 
3 382 351 330 
3 350 351 349 
3 159 352 157 
3 154 180 353 
3 354 353 169 
3 339 360 336 
3 355 354 169 
3 366 342 356 
3 169 361 355 
3 148 362 361 
3 336 354 356 
3 354 355 366 
3 380 344 500 
3 366 388 341 
3 391 369 237 
3 333 369 368 
3 500 372 370 
3 352 360 339 
3 354 360 353 
3 181 361 169 
3 148 185 362 
3 365 184 188 
3 361 362 389 
3 386 421 385 
3 387 389 363 
3 179 365 188 
3 363 184 365 
3 363 365 364 
3 342 366 341 
3 354 366 356 
3 342 341 420 
3 367 425 392 
3 369 333 237 
3 370 368 359 
3 391 392 405 
3 359 369 380 
3 344 499 500 
3 271 370 346 
3 417 309 315 
3 382 330 383 
3 500 370 359 
3 371 501 394 
3 395 394 373 
3 412 396 408 
3 371 374 372 
3 394 395 374 
3 387 384 385 
3 384 375 385 
3 375 386 385 
3 378 377 342 
3 392 391 237 
3 398 376 421 
3 390 434 399 
3 572 507 745 
3 528 531 527 
3 403 380 369 
3 380 944 406 
3 490 435 487 
3 477 479 481 
3 408 407 382 
3 382 349 351 
3 346 374 383 
3 383 374 395 
3 386 397 357 
3 127 384 387 
3 387 385 376 
3 357 402 423 
3 422 420 398 
3 387 376 389 
3 387 363 127 
3 355 361 389 
3 398 388 376 
3 389 362 363 
3 376 388 389 
3 420 422 378 
3 390 401 422 
3 237 404 392 
3 449 944 379 
3 377 367 392 
3 399 400 425 
3 400 437 379 
3 476 432 474 
3 371 394 374 
3 416 394 381 
3 408 395 373 
3 383 395 382 
3 373 415 408 
3 411 293 413 
3 398 341 388 
3 386 375 397 
3 357 423 386 
3 400 399 358 
3 401 399 367 
3 437 438 433 
3 405 379 391 
3 422 401 378 
3 399 401 390 
3 434 358 399 
3 744 430 402 
3 369 391 403 
3 391 379 944 
3 335 404 237 
3 377 404 338 
3 425 405 392 
3 400 379 405 
3 944 380 403 
3 393 483 480 
3 382 395 408 
3 409 407 396 
3 415 412 408 
3 396 407 408 
3 409 396 411 
3 409 270 742 
3 415 373 416 
3 410 415 416 
3 396 412 419 
3 414 411 418 
3 410 417 412 
3 418 419 417 
3 726 413 293 
3 409 413 270 
3 414 295 306 
3 293 411 414 
3 373 394 416 
3 410 412 415 
3 499 482 486 
3 428 309 417 
3 417 410 428 
3 313 418 311 
3 414 418 295 
3 411 396 419 
3 417 419 412 
3 411 419 418 
3 342 420 378 
3 341 398 420 
3 385 421 376 
3 423 421 386 
3 398 421 423 
3 402 390 422 
3 402 422 423 
3 398 423 422 
3 399 425 367 
3 433 447 449 
3 405 425 400 
3 416 381 442 
3 743 426 744 
3 471 450 436 
3 431 428 410 
3 428 431 459 
3 521 124 508 
3 524 526 503 
3 521 508 519 
3 440 438 358 
3 416 442 436 
3 431 427 459 
3 379 437 449 
3 309 459 457 
3 400 438 437 
3 445 447 433 
3 402 434 390 
3 440 358 546 
3 371 499 486 
3 471 436 435 
3 416 436 431 
3 471 472 443 
3 438 400 358 
3 449 447 448 
3 546 430 519 
3 440 441 438 
3 505 429 441 
3 441 433 438 
3 546 358 434 
3 440 439 441 
3 502 505 506 
3 429 445 441 
3 381 501 487 
3 436 442 435 
3 451 503 527 
3 427 436 450 
3 513 429 511 
3 441 506 505 
3 433 441 445 
3 488 475 481 
3 474 432 472 
3 429 447 445 
3 448 447 446 
3 483 478 480 
3 393 944 449 
3 433 449 437 
3 393 449 448 
3 492 453 455 
3 427 450 454 
3 316 461 460 
3 450 443 455 
3 456 454 450 
3 458 451 467 
3 492 443 432 
3 454 456 452 
3 450 455 456 
3 454 452 457 
3 492 455 443 
3 455 453 456 
3 458 453 515 
3 458 456 453 
3 460 457 452 
3 461 457 460 
3 900 465 891 
3 465 463 452 
3 428 459 309 
3 454 459 427 
3 462 900 890 
3 460 452 463 
3 316 497 498 
3 309 457 461 
3 814 942 812 
3 542 470 469 
3 452 456 465 
3 493 463 900 
3 468 464 467 
3 685 532 530 
3 456 458 465 
3 458 467 891 
3 466 463 493 
3 470 310 497 
3 467 451 531 
3 467 464 891 
3 476 549 525 
3 468 883 464 
3 463 469 460 
3 466 542 469 
3 544 518 542 
3 557 310 556 
3 472 471 435 
3 450 471 443 
3 435 442 487 
3 432 443 472 
3 344 406 480 
3 476 474 477 
3 490 472 435 
3 477 473 479 
3 510 511 429 
3 488 484 619 
3 477 474 473 
3 503 451 515 
3 473 482 479 
3 477 481 485 
3 483 393 448 
3 488 481 489 
3 482 480 478 
3 481 479 478 
3 393 480 406 
3 482 478 479 
3 478 483 489 
3 481 475 485 
3 482 473 486 
3 344 480 482 
3 448 446 483 
3 523 489 446 
3 510 429 505 
3 511 561 562 
3 549 485 475 
3 477 485 476 
3 473 474 490 
3 394 501 381 
3 381 487 442 
3 486 473 490 
3 489 481 478 
3 619 484 560 
3 446 489 483 
3 488 489 484 
3 490 474 472 
3 486 490 487 
3 549 476 485 
3 491 575 577 
3 453 492 503 
3 881 532 681 
3 493 462 496 
3 737 325 735 
3 630 631 629 
3 884 881 681 
3 806 590 553 
3 496 462 896 
3 544 495 543 
3 310 314 498 
3 316 470 497 
3 316 498 461 
3 498 497 310 
3 500 499 371 
3 482 499 344 
3 372 500 371 
3 500 359 380 
3 371 486 501 
3 487 501 486 
3 577 575 578 
3 604 599 603 
3 525 432 476 
3 524 503 492 
3 504 555 590 
3 591 592 626 
3 506 441 439 
3 502 745 510 
3 439 508 506 
3 512 508 124 
3 514 484 523 
3 513 446 447 
3 519 508 439 
3 509 512 491 
3 502 506 509 
3 508 509 506 
3 502 510 505 
3 511 510 507 
3 522 564 567 
3 513 514 446 
3 429 513 447 
3 508 512 509 
3 513 511 514 
3 561 511 507 
3 560 562 563 
3 458 515 451 
3 453 503 515 
3 560 484 514 
3 540 644 625 
3 652 568 522 
3 528 532 468 
3 466 493 544 
3 555 559 518 
3 546 439 440 
3 521 426 520 
3 521 430 744 
3 430 521 519 
3 521 520 124 
3 700 606 657 
3 522 567 576 
3 489 523 484 
3 446 514 523 
3 550 492 432 
3 526 524 516 
3 516 524 525 
3 524 492 550 
3 621 587 526 
3 526 517 527 
3 526 527 503 
3 528 527 517 
3 530 625 679 
3 531 528 468 
3 532 528 533 
3 660 536 650 
3 532 533 534 
3 467 531 468 
3 527 531 451 
3 533 528 517 
3 679 685 530 
3 533 539 534 
3 530 532 534 
3 526 516 621 
3 625 530 540 
3 526 587 517 
3 549 624 525 
3 533 623 539 
3 530 534 540 
3 663 647 667 
3 540 534 541 
3 671 872 873 
3 623 533 517 
3 539 537 541 
3 534 539 541 
3 646 648 644 
3 872 537 535 
3 540 541 671 
3 544 542 466 
3 556 542 518 
3 553 543 495 
3 555 543 590 
3 496 544 493 
3 544 543 555 
3 789 757 804 
3 557 558 317 
3 430 546 434 
3 439 546 519 
3 568 547 563 
3 537 623 622 
3 571 580 566 
3 563 547 560 
3 475 619 618 
3 641 620 586 
3 432 525 550 
3 524 550 525 
3 588 621 624 
3 618 549 475 
3 899 553 495 
3 646 644 538 
3 494 806 553 
3 774 768 769 
3 633 628 630 
3 559 555 504 
3 544 555 518 
3 559 556 518 
3 557 556 545 
3 558 557 545 
3 319 557 317 
3 635 629 631 
3 592 628 626 
3 504 869 871 
3 556 559 545 
3 511 562 514 
3 641 619 560 
3 572 561 507 
3 561 548 562 
3 562 548 563 
3 514 562 560 
3 548 564 563 
3 563 564 568 
3 566 567 571 
3 568 564 522 
3 548 569 571 
3 579 573 578 
3 585 582 566 
3 571 564 548 
3 582 584 566 
3 702 701 705 
3 586 620 659 
3 572 548 561 
3 573 596 572 
3 571 567 564 
3 598 597 584 
3 569 596 580 
3 745 573 572 
3 548 572 569 
3 491 577 509 
3 579 578 444 
3 574 599 605 
3 588 658 551 
3 597 567 566 
3 577 502 509 
3 636 653 701 
3 578 575 444 
3 745 577 573 
3 579 595 565 
3 573 577 578 
3 424 582 581 
3 596 579 580 
3 569 580 571 
3 585 579 565 
3 600 602 603 
3 565 581 585 
3 585 566 580 
3 582 424 600 
3 574 598 599 
3 705 598 574 
3 585 580 579 
3 581 582 585 
3 642 547 568 
3 588 551 621 
3 622 587 551 
3 623 587 622 
3 618 588 549 
3 659 620 643 
3 4 684 683 
3 896 495 496 
3 553 590 543 
3 590 554 870 
3 317 558 591 
3 591 558 592 
3 904 635 634 
3 626 628 300 
3 606 702 605 
3 771 787 781 
3 695 708 594 
3 572 596 569 
3 579 444 595 
3 573 579 596 
3 567 597 576 
3 566 584 597 
3 597 598 576 
3 599 598 584 
3 584 582 600 
3 601 605 604 
3 603 602 583 
3 584 600 599 
3 608 601 604 
3 657 695 700 
3 603 583 604 
3 600 424 602 
3 599 600 603 
3 570 608 607 
3 604 607 608 
3 604 605 599 
3 605 601 637 
3 608 613 601 
3 615 657 606 
3 609 696 697 
3 604 583 607 
3 608 614 613 
3 612 610 614 
3 613 615 637 
3 616 697 656 
3 615 606 637 
3 614 608 612 
3 608 570 612 
3 613 611 615 
3 617 640 616 
3 613 614 611 
3 611 655 615 
3 657 615 688 
3 614 610 617 
3 617 611 614 
3 640 747 0 
3 475 488 619 
3 618 586 659 
3 641 560 547 
3 586 618 619 
3 636 687 686 
3 710 704 709 
3 621 516 624 
3 551 587 621 
3 551 658 713 
3 537 622 535 
3 539 623 537 
3 517 587 623 
3 525 624 516 
3 549 588 624 
3 644 540 538 
3 680 679 625 
3 301 626 300 
3 591 626 302 
3 785 905 736 
3 920 902 903 
3 592 630 628 
3 628 633 304 
3 592 631 630 
3 738 304 633 
3 631 592 558 
3 633 629 632 
3 545 867 558 
3 590 870 504 
3 904 748 629 
3 728 733 735 
3 629 633 630 
3 633 632 738 
3 558 867 631 
3 789 804 870 
3 866 635 631 
3 634 921 904 
3 576 653 522 
3 701 687 636 
3 605 637 606 
3 613 637 601 
3 611 656 655 
3 691 676 692 
3 688 638 690 
3 668 669 661 
3 641 547 642 
3 747 640 617 
3 586 619 641 
3 686 642 568 
3 641 642 620 
3 642 686 620 
3 658 643 713 
3 645 646 647 
3 625 644 648 
3 552 649 650 
3 945 648 649 
3 647 646 538 
3 648 646 645 
3 665 667 670 
3 660 664 536 
3 649 648 645 
3 648 589 625 
3 645 660 650 
3 683 945 552 
3 680 651 679 
3 645 650 649 
3 810 794 809 
3 653 652 522 
3 686 652 636 
3 576 598 705 
3 652 653 636 
3 699 706 708 
3 712 654 710 
3 656 611 617 
3 688 655 638 
3 616 656 617 
3 638 655 656 
3 615 655 688 
3 695 657 639 
3 588 618 659 
3 713 643 711 
3 643 658 659 
3 588 659 658 
3 645 647 660 
3 663 662 664 
3 667 647 670 
3 663 661 662 
3 664 647 663 
3 661 663 668 
3 536 664 662 
3 647 664 660 
3 672 675 666 
3 666 675 676 
3 663 672 668 
3 668 672 666 
3 670 647 538 
3 667 665 672 
3 672 663 667 
3 669 666 529 
3 538 671 670 
3 666 669 668 
3 665 670 873 
3 540 671 538 
3 541 537 872 
3 875 674 675 
3 875 672 665 
3 873 874 665 
3 704 706 709 
3 877 878 674 
3 676 529 666 
3 875 665 874 
3 675 674 676 
3 699 703 878 
3 676 674 678 
3 689 692 693 
3 676 691 529 
3 678 674 878 
3 692 678 677 
3 680 625 589 
3 895 685 651 
3 684 945 683 
3 682 680 589 
3 938 935 937 
3 468 532 881 
3 825 823 830 
3 682 941 680 
3 936 684 4 
3 648 945 589 
3 945 682 589 
3 651 685 679 
3 532 685 681 
3 686 568 652 
3 712 686 654 
3 704 687 594 
3 686 687 654 
3 690 638 696 
3 657 688 698 
3 693 694 689 
3 639 698 693 
3 657 698 639 
3 693 692 677 
3 676 678 692 
3 689 691 692 
3 693 677 703 
3 693 690 694 
3 699 695 639 
3 690 609 694 
3 695 594 700 
3 638 656 697 
3 609 690 696 
3 688 690 698 
3 638 697 696 
3 693 698 690 
3 703 699 639 
3 878 706 699 
3 687 701 594 
3 605 702 574 
3 653 576 705 
3 594 701 700 
3 606 700 702 
3 701 702 700 
3 693 703 639 
3 677 678 878 
3 709 876 707 
3 704 654 687 
3 702 705 574 
3 653 705 701 
3 709 706 673 
3 708 706 704 
3 535 622 713 
3 704 710 654 
3 699 708 695 
3 704 594 708 
3 709 673 876 
3 710 709 707 
3 707 711 710 
3 710 711 712 
3 880 713 707 
3 712 711 643 
3 643 620 712 
3 686 712 620 
3 551 713 622 
3 707 713 711 
3 69 716 725 
3 277 717 292 
3 71 715 286 
3 65 715 9 
3 724 720 723 
3 717 718 292 
3 715 717 286 
3 718 714 716 
3 742 901 326 
3 291 719 289 
3 292 719 291 
3 721 720 289 
3 721 719 718 
3 721 716 722 
3 718 716 721 
3 722 716 30 
3 723 722 30 
3 720 721 722 
3 233 723 30 
3 724 723 232 
3 235 724 232 
3 724 326 901 
3 65 725 714 
3 69 725 45 
3 720 726 289 
3 413 726 270 
3 254 323 728 
3 730 732 903 
3 733 728 321 
3 325 727 728 
3 325 732 727 
3 730 903 729 
3 740 246 730 
3 748 750 629 
3 749 763 731 
3 732 325 903 
3 730 727 732 
3 734 733 321 
3 735 733 731 
3 321 322 738 
3 750 749 734 
3 731 764 735 
3 728 735 325 
3 752 762 763 
3 759 758 751 
3 756 772 776 
3 632 734 738 
3 738 734 321 
3 251 730 739 
3 246 739 730 
3 334 741 330 
3 730 729 740 
3 271 741 345 
3 350 742 326 
3 409 742 349 
3 743 744 402 
3 402 357 743 
3 521 744 426 
3 510 745 507 
3 577 745 502 
3 759 755 758 
3 859 917 916 
3 617 610 747 
3 734 749 731 
3 750 734 632 
3 749 748 752 
3 629 750 632 
3 748 749 750 
3 752 748 753 
3 786 737 756 
3 748 904 753 
3 759 762 752 
3 755 753 627 
3 752 753 759 
3 770 765 755 
3 765 754 755 
3 799 921 868 
3 755 754 758 
3 751 761 772 
3 737 735 764 
3 780 782 805 
3 765 778 754 
3 760 767 905 
3 775 766 772 
3 759 751 762 
3 755 759 753 
3 751 758 761 
3 768 798 760 
3 758 754 769 
3 772 762 751 
3 763 762 756 
3 752 763 749 
3 764 756 737 
3 731 763 764 
3 756 764 763 
3 770 755 627 
3 778 779 773 
3 769 761 758 
3 762 772 756 
3 760 905 768 
3 769 754 774 
3 754 778 774 
3 769 768 905 
3 627 904 921 
3 765 770 906 
3 795 757 782 
3 910 942 909 
3 785 772 761 
3 772 766 776 
3 765 779 778 
3 825 796 783 
3 787 783 796 
3 830 831 784 
3 6 920 786 
3 785 775 772 
3 756 776 786 
3 779 765 757 
3 776 766 777 
3 778 773 796 
3 789 800 805 
3 779 795 773 
3 896 462 890 
3 781 790 792 
3 781 773 795 
3 795 790 781 
3 789 782 757 
3 782 780 790 
3 783 771 820 
3 825 820 823 
3 768 774 798 
3 774 825 798 
3 905 785 761 
3 775 785 736 
3 776 777 786 
3 6 786 777 
3 783 787 771 
3 773 781 787 
3 792 791 788 
3 797 837 841 
3 906 799 804 
3 789 554 800 
3 791 790 780 
3 790 791 792 
3 807 794 780 
3 780 794 791 
3 822 792 788 
3 771 781 792 
3 940 943 919 
3 788 791 810 
3 780 800 807 
3 808 809 794 
3 757 795 779 
3 790 795 782 
3 778 796 774 
3 787 796 773 
3 774 796 825 
3 820 821 817 
3 760 798 784 
3 634 635 866 
3 504 870 869 
3 554 806 800 
3 806 801 800 
3 495 888 899 
3 809 808 793 
3 802 809 812 
3 822 832 821 
3 906 804 757 
3 830 826 593 
3 804 799 870 
3 789 805 782 
3 800 780 805 
3 806 554 590 
3 806 494 898 
3 800 801 807 
3 808 807 801 
3 807 808 794 
3 818 808 801 
3 813 812 809 
3 832 834 824 
3 794 810 791 
3 802 810 809 
3 811 812 813 
3 930 928 931 
3 813 809 793 
3 814 812 811 
3 816 813 793 
3 852 853 816 
3 922 814 811 
3 842 837 828 
3 816 793 818 
3 895 854 886 
3 793 808 818 
3 816 815 852 
3 792 822 771 
3 827 829 803 
3 494 553 899 
3 816 818 893 
3 821 820 771 
3 853 811 813 
3 820 817 823 
3 810 834 788 
3 835 829 827 
3 788 834 832 
3 771 822 821 
3 823 827 826 
3 830 823 826 
3 864 838 860 
3 836 803 829 
3 798 825 784 
3 820 825 783 
3 835 828 829 
3 827 823 817 
3 803 826 827 
3 850 832 833 
3 828 835 850 
3 835 827 817 
3 829 837 836 
3 784 831 760 
3 825 830 784 
3 788 832 822 
3 830 593 831 
3 832 824 833 
3 915 863 912 
3 842 841 837 
3 810 802 834 
3 802 942 910 
3 817 821 835 
3 850 835 821 
3 841 842 840 
3 837 829 828 
3 797 836 837 
3 856 833 824 
3 858 840 857 
3 844 843 839 
3 839 843 918 
3 843 841 840 
3 844 797 841 
3 833 865 828 
3 865 856 857 
3 848 918 845 
3 846 839 918 
3 865 857 840 
3 843 844 841 
3 847 843 840 
3 848 1 846 
3 847 860 861 
3 852 815 855 
3 848 846 918 
3 930 907 923 
3 832 850 821 
3 828 850 833 
3 824 834 910 
3 840 858 847 
3 886 815 892 
3 853 852 929 
3 816 853 813 
3 929 852 849 
3 680 919 943 
3 852 855 849 
3 886 855 815 
3 855 854 940 
3 824 910 911 
3 857 856 851 
3 857 851 858 
3 865 840 842 
3 864 862 838 
3 847 861 845 
3 847 858 860 
3 862 863 917 
3 851 863 864 
3 851 911 912 
3 860 838 861 
3 860 858 864 
3 914 915 913 
3 851 864 858 
3 862 864 863 
3 828 865 842 
3 856 865 833 
3 545 559 871 
3 921 799 906 
3 871 867 545 
3 631 867 866 
3 634 866 868 
3 866 871 869 
3 799 868 869 
3 866 869 868 
3 870 554 789 
3 799 869 870 
3 871 866 867 
3 504 871 559 
3 879 874 873 
3 541 872 671 
3 671 873 670 
3 879 872 535 
3 874 879 880 
3 876 877 875 
3 672 875 675 
3 876 875 874 
3 874 880 876 
3 877 876 673 
3 706 878 673 
3 674 875 877 
3 703 677 878 
3 673 878 877 
3 872 879 873 
3 880 879 535 
3 713 880 535 
3 876 880 707 
3 892 884 886 
3 468 881 883 
3 889 893 818 
3 883 885 464 
3 884 883 881 
3 883 887 885 
3 884 681 886 
3 897 887 882 
3 887 897 885 
3 890 885 896 
3 895 886 681 
3 855 886 854 
3 883 884 887 
3 882 887 884 
3 892 894 882 
3 889 818 801 
3 898 889 801 
3 892 893 894 
3 493 900 462 
3 464 885 890 
3 891 465 458 
3 464 890 891 
3 893 892 815 
3 884 892 882 
3 893 815 816 
3 894 893 889 
3 899 894 889 
3 894 888 897 
3 685 895 681 
3 895 651 943 
3 897 896 885 
3 896 888 495 
3 894 897 882 
3 896 897 888 
3 806 898 801 
3 899 898 494 
3 894 899 888 
3 899 889 898 
3 465 900 463 
3 890 900 891 
3 726 901 270 
3 724 901 720 
3 920 325 737 
3 737 786 920 
3 729 903 902 
3 635 904 629 
3 753 904 627 
3 736 905 767 
3 769 905 761 
3 765 906 757 
3 770 627 921 
3 923 939 930 
3 746 916 926 
3 912 863 851 
3 934 908 935 
3 856 911 851 
3 802 910 834 
3 910 909 911 
3 911 856 824 
3 911 909 912 
3 913 909 942 
3 912 909 913 
3 914 913 814 
3 912 913 915 
3 924 814 922 
3 926 916 927 
3 916 915 914 
3 862 917 859 
3 916 914 927 
3 859 916 746 
3 863 915 917 
3 916 917 915 
3 843 847 918 
3 918 847 845 
3 941 936 935 
3 919 938 940 
3 902 920 6 
3 325 920 903 
3 868 921 634 
3 770 921 906 
3 853 929 811 
3 924 922 907 
3 907 922 923 
3 923 922 811 
3 933 907 931 
3 814 924 914 
3 907 927 924 
3 933 932 925 
3 927 914 924 
3 925 926 927 
3 938 919 941 
3 931 937 819 
3 849 923 929 
3 811 929 923 
3 939 923 849 
3 928 937 931 
3 933 925 927 
3 907 930 931 
3 907 933 927 
3 931 819 932 
3 931 932 933 
3 937 935 908 
3 4 934 936 
3 941 935 938 
3 936 682 684 
3 934 935 936 
3 819 937 908 
3 938 937 928 
3 928 939 938 
3 854 943 940 
3 930 939 928 
3 849 855 940 
3 938 939 940 
3 849 940 939 
3 680 941 919 
3 936 941 682 
3 812 942 802 
3 913 942 814 
3 895 943 854 
3 680 943 651 
3 406 944 393 
3 391 944 403 
3 945 649 552 
3 682 945 684 

CELL_TYPES 1766
5
5
5
5
5
5
5
5
5
5
5
5
5
5
5
5
5
5
5
5
5
5
5
5
5
5
5
5
5
5
5
5
5
5
5
5
5
5
5
5
5
5
5
5
5
5
5
5
5
5
5
5
5
5
5
5
5
5
5
5
5
5
5
5
5
5
5
5
5
5
5
5
5
5
5
5
5
5
5
5
5
5
5
5
5
5
5
5
5
5
5
5
5
5
5
5
5
5
5
5
5
5
5
5
5
5
5
5
5
5
5
5
5
5
5
5
5
5
5
5
5
5
5
5
5
5
5
5
5
5
5
5
5
5
5
5
5
5
5
5
5
5
5
5
5
5
5
5
5
5
5
5
5
5
5
5
5
5
5
5
5
5
5
5
5
5
5
5
5
5
5
5
5
5
5
5
5
5
5
5
5
5
5
5
5
5
5
5
5
5
5
5
5
5
5
5
5
5
5
5
5
5
5
5
5
5
5
5
5
5
5
5
5
5
5
5
5
5
5
5
5
5
5
5
5
5
5
5
5
5
5
5
5
5
5
5
5
5
5
5
5
5
5
5
5
5
5
5
5
5
5
5
5
5
5
5
5
5
5
5
5
5
5
5
5
5
5
5
5
5
5
5
5
5
5
5
5
5
5
5
5
5
5
5
5
5
5
5
5
5
5
5
5
5
5
5
5
5
5
5
5
5
5
5
5
5
5
5
5
5
5
5
5
5
5
5
5
5
5
5
5
5
5
5
5
5
5
5
5
5
5
5
5
5
5
5
5
5
5
5
5
5
5
5
5
5
5
5
5
5
5
5
5
5
5
5
5
5
5
5
5
5
5
5
5
5
5
5
5
5
5
5
5
5
5
5
5
5
5
5
5
5
5
5
5
5
5
5
5
5
5
5
5
5
5
5
5
5
5
5
5
5
5
5
5
5
5
5
5
5
5
5
5
5
5
5
5
5
5
5
5
5
5
5
5
5
5
5
5
5
5
5
5
5
5
5
5
5
5
5
5
5
5
5
5
5
5
5
5
5
5
5
5
5
5
5
5
5
5
5
5
5
5
5
5
5
5
5
5
5
5
5
5
5
5
5
5
5
5
5
5
5
5
5
5
5
5
5
5
5
5
5
5
5
5
5
5
5
5
5
5
5
5
5
5
5
5
5
5
5
5
5
5
5
5
5
5
5
5
5
5
5
5
5
5
5
5
5
5
5
5
5
5
5
5
5
5
5
5
5
5
5
5
5
5
5
5
5
5
5
5
5
5
5
5
5
5
5
5
5
5
5
5
5
5
5
5
5
5
5
5
5
5
5
5
5
5
5
5
5
5
5
5
5
5
5
5
5
5
5
5
5
5
5
5
5
5
5
5
5
5
5
5
5
5
5
5
5
5
5
5
5
5
5
5
5
5
5
5
5
5
5
5
5
5
5
5
5
5
5
5
5
5
5
5
5
5
5
5
5
5
5
5
5
5
5
5
5
5
5
5
5
5
5
5
5
5
5
5
5
5
5
5
5
5
5
5
5
5
5
5
5
5
5
5
5
5
5
5
5
5
5
5
5
5
5
5
5
5
5
5
5
5
5
5
5
5
5
5
5
5
5
5
5
5
5
5
5
5
5
5
5
5
5
5
5
5
5
5
5
5
5
5
5
5
5
5
5
5
5
5
5
5
5
5
5
5
5
5
5
5
5
5
5
5
5
5
5
5
5
5
5
5
5
5
5
5
5
5
5
5
5
5
5
5
5
5
5
5
5
5
5
5
5
5
5
5
5
5
5
5
5
5
5
5
5
5
5
5
5
5
5
5
5
5
5
5
5
5
5
5
5
5
5
5
5
5
5
5
5
5
5
5
5
5
5
5
5
5
5
5
5
5
5
5
5
5
5
5
5
5
5
5
5
5
5
5
5
5
5
5
5
5
5
5
5
5
5
5
5
5
5
5
5
5
5
5
5
5
5
5
5
5
5
5
5
5
5
5
5
5
5
5
5
5
5
5
5
5
5
5
5
5
5
5
5
5
5
5
5
5
5
5
5
5
5
5
5
5
5
5
5
5
5
5
5
5
5
5
5
5
5
5
5
5
5
5
5
5
5
5
5
5
5
5
5
5
5
5
5
5
5
5
5
5
5
5
5
5
5
5
5
5
5
5
5
5
5
5
5
5
5
5
5
5
5
5
5
5
5
5
5
5
5
5
5
5
5
5
5
5
5
5
5
5
5
5
5
5
5
5
5
5
5
5
5
5
5
5
5
5
5
5
5
5
5
5
5
5
5
5
5
5
5
5
5
5
5
5
5
5
5
5
5
5
5
5
5
5
5
5
5
5
5
5
5
5
5
5
5
5
5
5
5
5
5
5
5
5
5
5
5
5
5
5
5
5
5
5
5
5
5
5
5
5
5
5
5
5
5
5
5
5
5
5
5
5
5
5
5
5
5
5
5
5
5
5
5
5
5
5
5
5
5
5
5
5
5
5
5
5
5
5
5
5
5
5
5
5
5
5
5
5
5
5
5
5
5
5
5
5
5
5
5
5
5
5
5
5
5
5
5
5
5
5
5
5
5
5
5
5
5
5
5
5
5
5
5
5
5
5
5
5
5
5
5
5
5
5
5
5
5
5
5
5
5
5
5
5
5
5
5
5
5
5
5
5
5
5
5
5
5
5
5
5
5
5
5
5
5
5
5
5
5
5
5
5
5
5
5
5
5
5
5
5
5
5
5
5
5
5
5
5
5
5
5
5
5
5
5
5
5
5
5
5
5
5
5
5
5
5
5
5
5
5
5
5
5
5
5
5
5
5
5
5
5
5
5
5
5
5
5
5
5
5
5
5
5
5
5
5
5
5
5
5
5
5
5
5
5
5
5
5
5
5
5
5
5
5
5
5
5
5
5
5
5
5
5
5
5
5
5
5
5
5
5
5
5
5
5
5
5
5
5
5
5
5
5
5
5
5
5
5
5
5
5
5
5
5
5
5
5
5
5
5
5
5
5
5
5
5
5
5
5
5
5
5
5
5
5
5
5
5
5
5
5
5
5
5
5
5
5
5
5
5
5
5
5
5
5
5
5
5
5
5
5
5
5
5
5
5
5
5
5
5
5
5
5
5
5
5
5
5
5
5
5
5
5
5
5
5
5
5
5
5
5
5
5
5
5
5
5
5
5
5
5
5
5
5
5
5
5
5
5
5
5
5
5
5
5
5
5
5
5
5
5
5
5
5
5
5
5
5
5
5
5
5
5
5
5
5
5
5
5
5
5
5
5
5
5
5
5
5
5
5
5
5
5
5
5
5
5
5
5
5
5
5
5
5
5
5
5
5
5
5
5
5
5
5
5
5
5
5
5
5
5
5
5
5
5
5
5
5
5
5
5
5
5
5
5
5
5
5
5
5
5
5
5
5
5
5
5
5
5
5
5
5
5
5
5
5
5
5
5
5
5
5
5
5
5
5
5
5
5
5
5
5
5
5
5
5
5
5
5
5
5
5
5
5
5
5
5
5
5
5
5
5
5
5
5
5
5
5
5
5
5
5
5
5
5
5
5
5
5
5
5
5
5
5
5
5
5
5
5
5
5
5
5
5
5
5
5
5
5
5
5
5
5
5
5
5
5
5
5
5
5
5
5
5
5
5
5
5
5
5
5
5
5
5
5
5
5
5
5
5
5
5
5
5
5
5
5
5
5
5
5
5
5
5
5
5
5
5
5
5
5
5
5
5
5
5
5
5
5
5
5
5
5
5
5
5
5
5
5
5
5
5
5
5
5
5
5
5
5
5
5
5
5
5
5
5
5
5
5
5
5
5
5
5
5
5
5
5
5
5
5
5
5
5
5
5
5
5
5
5
5
5
5
5
5
5
5
5
5
5
5
5
5
5
5
5
5
5
5
5
5
5
5
5
5
5
5
5
5
5
5
5
5
5
5
5
5
5
5
5
5
5
5
5
5
5
5
5
5
5
5
5
5
5
5
5
5
5
5
5
5
5
5
5
5
5
5
5
5
5
5

POINT_DATA 946
VECTORS Velocity double
0 0 0 0 0 0 0 0 0 
0 0 0 0 0 0 0 0 0 
0 0 0 0 0 0 -0.0679625 -0.214324 0 
0.0230651 -0.145403 0 0 0 0 0 0 0 
0.0186378 -0.0688868 0 0 0 0 0 0 0 
0 0 0 0 0 0 0 0 0 
0 0 0 0 0 0 0.00987902 -0.0500208 0 
0 0 0 0.0111271 -0.041994 0 0 0 0 
0.0305854 -0.0902277 0 0.0161129 -0.115685 0 -0.000329361 -0.0346336 0 
0 0 0 0 0 0 -0.00193628 -0.00717423 0 
0.0510029 -0.13249 0 0.019849 -0.104186 0 -0.0935869 -0.0991965 0 
0 0 0 0 0 0 0 0 0 
0 0 0 0 0 0 0 0 0 
0 0 0 0 0 0 0.0408781 0.0426041 0 
0.0443634 -0.0842197 0 0.0251145 0.00115009 0 0 0 0 
0.0569674 -0.141611 0 0.00898157 -0.145824 0 0 0 0 
-0.120623 -0.198769 0 0 0 0 0 0 0 
0.0494464 0.106524 0 0 0 0 0 0 0 
0 0 0 0 0 0 0 0 0 
0 0 0 0 0 0 0 0 0 
0 0 0 0 0 0 0 0 0 
-0.00443632 -0.100817 0 0 0 0 0.0414574 -0.13616 0 
0.0552958 -0.126903 0 0.0301088 -0.125346 0 0.0254731 -0.116334 0 
0.0452091 -0.13997 0 0.020623 -0.0814862 0 0.0164366 -0.149518 0 
0.0554545 -0.102918 0 0.0935621 -0.121982 0 0.0288698 -0.132555 0 
0.0305516 0.0139444 0 0 0 0 0 0 0 
0 0 0 -0.0232871 0.00293982 0 0.0741319 0.10281 0 
0 0 0 -0.00461316 0.0114769 0 0 0 0 
0 0 0 0 0 0 0 0 0 
0 0 0 0 0 0 0 0 0 
0 0 0 0 0 0 0 0 0 
0 0 0 0 0 0 -0.00524369 -0.0839129 0 
-0.0338416 -0.0517339 0 0 0 0 -0.00188338 -0.0170938 0 
0 0 0 -0.0231035 -0.00216934 0 0.00992284 0.0178455 0 
0 0 0 0.0205101 -0.0117969 0 0.0259846 -0.0188894 0 
0.00579888 -0.0721803 0 0.0339685 -0.0996875 0 -0.201379 -0.15306 0 
0 0 0 0 0 0 0 0 0 
0 0 0 0 0 0 0 0 0 
0 0 0 0.00886571 0.00428799 0 0 0 0 
0 0 0 0 0 0 0 0 0 
0 0 0 0 0 0 0 0 0 
0 0 0 0 0 0 0 0 0 
0.00787496 -0.0380718 0 0 0 0 0.00869301 0.0099676 0 
-0.00831819 -0.0368851 0 -0.0186604 -0.0190797 0 0.00533278 0.0225207 0 
-0.0454546 -0.0129316 0 0.00814366 -0.0185082 0 0.00664359 -0.0494422 0 
0 0 0 0 0 0 0 0 0 
0 0 0 0 0 0 0 0 0 
0 0 0 0.00765296 0.00537332 0 0.000304746 -0.0220853 0 
-0.00209446 -0.0428756 0 0.0701119 -0.105248 0 -0.017039 -0.0152935 0 
-0.0116314 0.00760869 0 0.0577503 -0.104591 0 -0.0281197 -0.0324891 0 
0.0427272 -0.0721806 0 0.0492362 0.0215119 0 0.0161538 -0.0520764 0 
0.00248587 0.03833 0 0.0166529 -0.0532278 0 0.0135112 -0.034391 0 
0.0261017 -0.00709078 0 0.0244552 -0.0390809 0 0.0234738 -0.0474589 0 
0.00736542 -0.0367604 0 0.0576433 -0.0675463 0 0.0486493 -0.0681103 0 
0.0155708 -0.0194384 0 0.0470804 -0.0469359 0 0.0245661 -0.0341301 0 
0.0624895 -0.0201379 0 0 0 0 -0.0495184 0.0451393 0 
-0.0234934 0.0758676 0 0.0188232 -0.0506593 0 0.0161976 0.0395076 0 
0.0422268 0.00641425 0 0.0437878 0.0426728 0 0 0 0 
0.00237448 0.0240105 0 0 0 0 0 0 0 
0 0 0 0 0 0 0 0 0 
0.0220247 -0.0785051 0 0.0499253 -0.0989672 0 -0.017939 0.0768629 0 
0.0316785 0.0472914 0 0 0 0 -0.136467 -0.0780183 0 
0 0 0 0 0 0 0 0 0 
0 0 0 0 0 0 0 0 0 
0 0 0 0 0 0 0 0 0 
0 0 0 0 0 0 0 0 0 
0 0 0 0 0 0 -0.150277 -0.104485 0 
0.0221912 -0.115724 0 -0.119744 -0.0416918 0 -0.012212 -0.00826762 0 
-0.174248 0.0411646 0 0.0558666 0.0674285 0 -0.0795507 -0.109594 0 
0.0807738 0.0775841 0 0.0424573 0.088599 0 -0.147086 -0.106791 0 
-0.041233 -0.0540089 0 0.0269636 -0.13929 0 -0.0438713 -0.102425 0 
-0.142622 -0.102885 0 -0.145366 -0.131969 0 -0.0992197 -0.0894256 0 
0.0317841 0.0680432 0 -0.138598 -0.103968 0 -0.151466 -0.115838 0 
-0.123968 -0.100723 0 0 0 0 0 0 0 
0 0 0 0.184182 0.0712645 0 0.0272594 -0.0715523 0 
0.0169332 -0.0490261 0 0.028535 -0.0684724 0 0.0258902 -0.0512476 0 
0.0413313 -0.0961658 0 0.0354767 -0.0854668 0 0.0473306 -0.0896902 0 
0.0286817 -0.08541 0 0.0479886 -0.111867 0 0.038218 -0.102047 0 
0.0364311 -0.0948389 0 0.0727142 -0.129002 0 0 0 0 
0.107494 -0.0410369 0 -0.0197001 -0.041129 0 -0.108093 -0.071127 0 
-0.124526 -0.110792 0 -0.149281 -0.1142 0 -0.108424 -0.0996954 0 
-0.199604 -0.062989 0 -0.159248 -0.0375501 0 -0.159026 -0.0873041 0 
0 0 0 -0.178354 -0.0654812 0 -0.152053 -0.0818422 0 
-0.151345 -0.0993956 0 -0.125831 -0.117433 0 0 0 0 
-0.154014 -0.0947157 0 -0.0377617 0.0159888 0 -0.159788 -0.0374566 0 
0 0 0 -0.0815642 -0.0319086 0 0 0 0 
0.0167441 0.0602814 0 0 0 0 0 0 0 
0.0680801 -0.0895652 0 0 0 0 0 0 0 
0 0 0 0 0 0 -0.169518 -0.0847445 0 
-0.188091 -0.0420068 0 0 0 0 0.0572259 -0.110709 0 
0.0382068 -0.123207 0 0.132494 -0.111748 0 -0.137674 -0.100738 0 
-0.115446 -0.104221 0 -0.0804179 -0.12444 0 -0.105543 -0.110616 0 
-0.0785272 -0.113989 0 -0.0234278 -0.153793 0 -0.0514155 -0.133091 0 
-0.0388162 -0.118546 0 -0.0478129 -0.154018 0 -0.0570961 -0.143165 0 
-0.0874781 -0.142952 0 -0.103809 -0.116443 0 -0.128039 -0.104301 0 
-0.159594 -0.0938804 0 0.00761004 -0.164517 0 -0.0144183 -0.147627 0 
-0.0669332 -0.179099 0 -0.011181 -0.150192 0 -0.044715 -0.18509 0 
-0.0284952 -0.163136 0 -0.0166586 -0.16692 0 -0.0021634 -0.144758 0 
-0.0268757 -0.189439 0 -0.0697099 -0.216517 0 -0.153948 -0.177264 0 
-0.108073 -0.180324 0 -0.120058 -0.209525 0 -0.1364 -0.14763 0 
-0.201895 -0.112834 0 -0.178144 -0.14128 0 -0.216494 -0.153171 0 
-0.170441 -0.109164 0 -0.209508 -0.0744911 0 -0.190135 -0.0738764 0 
-0.0752917 -0.2297 0 -0.15723 -0.192925 0 -0.108556 -0.200807 0 
0 0 0 0.029033 -0.0509103 0 -0.090111 -0.0290467 0 
-0.0956603 -0.166035 0 -0.0925216 -0.151856 0 -0.0101679 -0.0205223 0 
-0.043657 0.0874124 0 0 0 0 -0.214999 -0.134355 0 
-0.186213 -0.16736 0 -0.150717 -0.140792 0 -0.189088 -0.0760368 0 
-0.225898 -0.0467524 0 -0.216825 -0.0605098 0 -0.215167 -0.0541106 0 
-0.186603 -0.171501 0 0 0 0 0.0915649 -0.133099 0 
0.0990702 -0.0989013 0 0.0764503 -0.0874703 0 0.0755599 -0.0512499 0 
0.132027 -0.152711 0 0.0967108 -0.077702 0 0.0683476 -0.061975 0 
0.116485 -0.0719961 0 0.110251 -0.136447 0 0.080594 -0.0344337 0 
0.021949 0.0103131 0 0.046761 -0.018264 0 0.054244 -0.0024426 0 
0.0192194 -0.0128661 0 0.040799 0.00189339 0 0.0275255 0.0161251 0 
0.0251108 0.0143626 0 0.0482029 -0.0383306 0 0.208186 -0.112161 0 
0.125396 -0.127695 0 0.157388 -0.139473 0 0.106223 -0.148856 0 
0.0873746 -0.136074 0 0.129915 -0.144161 0 0.104323 -0.138545 0 
0.125713 -0.148224 0 0.00334129 -0.0292838 0 0.00536452 -0.0310338 0 
0.0190482 0.0119898 0 0.0428058 0.00015817 0 0.0253892 0.0214175 0 
0 0 0 -0.0270729 0.0423003 0 0.167626 -0.107581 0 
0.00796131 0.00018798 0 0.0433534 -0.0825228 0 -0.0053483 -0.0862407 0 
0 0 0 0 0 0 0 0 0 
0.0278176 0.0168382 0 0.0295195 0.0209981 0 0.147088 -0.101935 0 
0.150648 -0.0801592 0 0.163407 -0.121758 0 0.18941 -0.138921 0 
0.177452 -0.136302 0 0.157922 -0.0319455 0 0.17693 -0.143573 0 
0 0 0 0 0 0 0.0363138 0.0103699 0 
0.0161053 0.0192136 0 0.142975 -0.0293762 0 0.183187 -0.0924803 0 
0.0738108 -0.139341 0 0.15904 -0.141953 0 0.160987 -0.153178 0 
0 0 0 0 0 0 0 0 0 
0 0 0 0.0437451 0.00283404 0 0.0295645 -0.00952581 0 
-0.00871504 0.00232748 0 0.137674 -0.0482518 0 0.0847243 -0.00993531 0 
0.202506 -0.0783592 0 0.126411 -0.0943165 0 0.172 -0.119908 0 
0.0604963 -0.0737375 0 0 0 0 0.0297613 0.00158232 0 
-0.000375685 0.0186673 0 0.0792996 0.00900976 0 0.0100971 0.0205629 0 
0 0 0 0.167188 -0.0750056 0 0.0779484 -0.0139993 0 
0.114544 -0.0196033 0 0.201875 -0.0908366 0 0.120677 -0.120266 0 
0.114719 -0.067054 0 0.0489007 -0.111115 0 0.262875 -0.0187496 0 
0.0277255 -0.145601 0 0.136096 -0.0890349 0 -0.000964187 -0.113886 0 
-0.000422056 -0.207014 0 0.1354 -0.0106862 0 0.0548983 -0.119645 0 
0.0937778 -0.0518384 0 0.0179197 -0.205634 0 0.12613 -0.152392 0 
0.0323307 0.0136396 0 0 0 0 0.0138994 0.00597595 0 
0 0 0 0 0 0 0.0687846 0.00675019 0 
0 0 0 0 0 0 0.153153 0.12383 0 
0.143728 -0.141533 0 0 0 0 0.226008 -0.120892 0 
0.229684 -0.114593 0 0.171028 -0.0128527 0 -0.00476937 0.04048 0 
0.21075 -0.230032 0 0.0528493 -0.24114 0 0.134569 -0.0026858 0 
0.0532967 0.0558858 0 -0.094933 0.0288138 0 -0.0647211 0.0712697 0 
-0.00264507 0.0147357 0 0.0653602 -0.266768 0 0.0893124 -0.0296427 0 
0 0 0 0.188958 -0.0683817 0 0.204682 -0.0729288 0 
0.188085 -0.0636455 0 0.200961 -0.0647796 0 0.177035 -0.0411622 0 
0 0 0 0 0 0 0 0 0 
0 0 0 0 0 0 0 0 0 
0 0 0 0 0 0 0 0 0 
0 0 0 0 0 0 0 0 0 
0 0 0 0 0 0 0 0 0 
0 0 0 0.0507687 0.0352105 0 0 0 0 
0 0 0 0 0 0 0.0607659 0.0598537 0 
0.135356 -0.0983174 0 0.233541 -0.126909 0 0.25153 -0.143355 0 
0.27281 -0.145191 0 0.274963 -0.0753719 0 0.28696 -0.102726 0 
0.273842 -0.118903 0 0.242436 -0.101524 0 0.255404 -0.117157 0 
0.222369 -0.102817 0 0.263494 -0.0960968 0 0.229009 -0.124879 0 
0.223939 -0.0858381 0 0.240018 -0.0711101 0 0.280242 -0.0927615 0 
0.209799 -0.152076 0 0.179276 -0.205231 0 0.256826 -0.0802119 0 
0.239995 -0.084851 0 0.246459 -0.183015 0 0 0 0 
0 0 0 0.0178658 -0.00600812 0 -0.1787 0.0394846 0 
-0.0172423 0.017507 0 0.0296889 -0.00200858 0 0.212479 0.00941292 0 
0.0977963 -0.00440512 0 0.208749 -0.13168 0 0.190766 -0.124402 0 
0.179957 -0.148843 0 0 0 0 0 0 0 
-0.239693 0.00635877 0 -0.121986 -0.158302 0 0 0 0 
0.0589671 -0.00907132 0 0 0 0 0 0 0 
0.0492842 -0.134915 0 0.131879 -0.0551351 0 0 0 0 
0.168443 -0.0831557 0 0.195668 -0.0581897 0 0 0 0 
0.277329 -0.0145651 0 0 0 0 -0.0604009 0.0228951 0 
0 0 0 0 0 0 0 0 0 
0.157035 0.00598329 0 0.223197 -0.0754845 0 0.10873 -0.0512604 0 
0.291847 -0.0821622 0 0.0537256 0.101906 0 0 0 0 
0 0 0 0.232109 -0.000528483 0 0 0 0 
0 0 0 0 0 0 0 0 0 
0 0 0 0.218726 -0.0173435 0 0 -0 0 
0.126319 -0.0037422 0 -0.0409782 -0.0461714 0 0 0 0 
0 0 0 0.0568633 -0.0124142 0 0.0290577 0.0716177 0 
-0.0956721 0.0107754 0 0.0155917 0.00408506 0 -0.250407 -0.0528003 0 
-0.0110041 0.0390478 0 0.254258 -0.0408771 0 0.121777 -0.0160515 0 
0.296261 -0.0637386 0 0.182822 -0.145969 0 0.241699 0.0046398 0 
0 0 0 -0.135587 0.0257696 0 -0.2765 0.0143546 0 
-0.133182 0.0190372 0 -0.125715 -0.00210019 0 -0.208948 -0.0829707 0 
-0.266286 -0.104096 0 -0.200142 0.000253471 0 0.238951 -0.0502662 0 
0.106534 -0.0103257 0 0.178152 -0.0225091 0 0.20527 -0.0260924 0 
0.144544 -0.0176544 0 0 0 0 0 0 0 
0.0611978 -0.0195622 0 0.245537 -0.0268534 0 0.0469636 0.00385972 0 
0 0 0 0.0395414 -0.0234941 0 0.0521147 -0.000176996 0 
0 0 0 -0.00127524 0.0131356 0 0 0 0 
0.0302427 0.0415852 0 0 0 0 0 0 0 
0 0 0 0 0 0 0 0 0 
0 0 0 0 0 0 0 0 0 
0 0 0 0.26886 -0.0473176 0 0.158202 0.0273777 0 
0.286881 -0.0316913 0 0 0 0 -0.214224 0.0162861 0 
-0.237318 -0.141214 0 -0.252682 -0.107879 0 0 0 0 
0.269639 -0.0278483 0 0 0 0 0 0 0 
0.0976091 -0.00464093 0 0.0295133 0.0428295 0 0 0 0 
0 0 0 0 0 0 0 0 0 
0 0 0 0 0 0 0 0 0 
0.126116 -0.00080582 0 0 0 0 0 0 0 
0.232567 -0.000529526 0 0 0 0 0 0 0 
0 0 0 0 0 0 0 0 0 
0.0773654 -0.0139488 0 0 -0 0 0 0 0 
0.280323 -0.0557086 0 0.264075 -0.0614258 0 0.266333 -0.034891 0 
0.241014 0.00520171 0 0.189833 0.00558044 0 0.0796988 0.00958068 0 
0.295778 -0.0469163 0 0 0 0 -0.222008 -0.131724 0 
-0.310736 -0.00758374 0 -0.229209 -0.0866676 0 -0.280646 -0.0509764 0 
-0.257126 -0.0777196 0 -0.285467 -0.0742972 0 -0.255727 -0.0445749 0 
-0.241961 -0.0615246 0 -0.311291 -0.0342785 0 -0.300641 -0.0512711 0 
0.258068 -0.0157269 0 -0.0170136 -0.0364319 0 0.166441 -0.0389232 0 
0.252252 -0.0356789 0 0 0 0 0.265585 -0.0474128 0 
0.268607 -0.0379728 0 0.27478 -0.0191612 0 0 0 0 
0 0 0 0 0 0 0.0657455 0.114079 0 
0 0 0 0 0 0 0 0 0 
0 0 0 0.234382 -0.0163285 0 0.179681 0.00610189 0 
0.260923 -0.0249412 0 0.0476372 -0.00347469 0 0 0 0 
0.23777 -0.0363175 0 0.269901 -0.0214394 0 0.280133 -0.0349622 0 
0.0530722 0.0881607 0 0.232333 -0.000528993 0 0.221717 -0.000504824 0 
0.253383 0.079233 0 0.196518 0.105872 0 0.277486 -0.00617708 0 
0.223753 0.0163641 0 0.296221 0.0388006 0 0.222008 0.0271604 0 
0.232169 -0.00052862 0 0.151971 -0.0353391 0 0.057956 -0.0216577 0 
0.266647 0.0268505 0 0.2342 -0.0118494 0 0.228452 -0.00793032 0 
0.232123 0.00539221 0 0.218455 0.000293964 0 0.221885 -0.0152351 0 
0.223286 -0.00712339 0 0 0 0 0 0 0 
0 0 0 0 0 0 0 0 0 
0 0 0 0 0 0 0.265247 -0.0308767 0 
0.267763 -0.0254873 0 0.217221 -0.0374068 0 0.232158 -0.000528596 0 
0.247479 -0.0474076 0 0.232118 -0.000528505 0 0.213111 -0.00968893 0 
0.223122 -0.0235036 0 0.232213 -0.000528721 0 0.270929 -0.0345906 0 
0.242152 -0.0688918 0 0.186443 -0.000424509 0 0.263102 -0.0476738 0 
0.244734 -0.0232957 0 0.240504 -0.0300778 0 0.225094 -0.010527 0 
0.101821 0.00834893 0 0.23138 -0.0195903 0 0.253286 -0.0226588 0 
0.0875595 0.00873321 0 0.241754 -0.0186026 0 0.260759 -0.00765742 0 
0.260262 -0.0286634 0 0.241832 -0.0144365 0 0.253343 -0.0175448 0 
0.265935 -0.0109412 0 0.262109 -0.02294 0 0.253173 -0.00961824 0 
0.034234 -0.16249 0 0.026932 -0.164527 0 0.0459596 -0.155892 0 
0.00954305 -0.173224 0 0.0172341 -0.164323 0 0.000814687 -0.155632 0 
0.040915 -0.138101 0 0.0275643 -0.147154 0 0.0573763 -0.149238 0 
0.058944 -0.1302 0 0.0700835 -0.133495 0 0.044302 -0.148252 0 
0.00832257 -0.12865 0 -0.0409539 -0.014386 0 -0.17698 -0.0432209 0 
0 0 0 0 0 0 -0.199383 -0.0200163 0 
0 0 0 -0.214463 -0.0308427 0 -0.243347 -0.0364207 0 
-0.11537 -0.0200478 0 0 0 0 0 0 0 
-0.235178 -0.0536544 0 0 0 0 0 0 0 
0.138975 -0.142721 0 0.0933586 -0.130872 0 0 0 0 
0 0 0 0 0 0 -0.310921 0.0293879 0 
0 0 0 -0.281234 -0.0173986 0 -0.252372 -0.0149969 0 
-0.267044 -0.0292972 0 -0.0731699 0.00224488 0 -0.246516 0.00570324 0 
-0.291614 -0.000300591 0 -0.228581 0.00555941 0 -0.296164 0.00778876 0 
0 0 0 -0.334414 0.0079557 0 -0.140572 0.00214179 0 
-0.231827 0.0107442 0 0 0 0 0 0 0 
-0.121267 0.00814203 0 -0.180376 0.00190861 0 -0.089594 -0.00937059 0 
-0.320641 0.00783001 0 0 0 0 0 0 0 
0 0 0 0 0 0 -0.324726 -0.000458145 0 
-0.248549 -0.0129555 0 0 0 0 -0.301931 0.0109046 0 
-0.0601074 0.02601 0 0 0 0 0 0 0 
0 0 0 -0.281758 0.0146232 0 -0.326367 0.0109532 0 
-0.314923 0.0256665 0 -0.321786 0.00944277 0 -0.334256 0.0162743 0 
-0.104155 -0.0181047 0 0 0 0 0 0 0 
0 0 0 -0.280913 0.00491989 0 -0.293273 0.019974 0 
-0.315824 0.0124461 0 -0.329777 0.0153177 0 -0.317161 0.0255703 0 
-0.317291 0.00801873 0 -0.247143 0.0297084 0 -0.300818 0.0321448 0 
-0.331334 0.0121538 0 -0.181299 -0.0016439 0 0 0 0 
0 0 0 -0.317476 -0.00916166 0 -0.28816 0.0247288 0 
-0.216193 0.0325343 0 -0.319126 0.0489338 0 0 0 0 
-0.3253 0.00062097 0 -0.317354 0.0218595 0 -0.235111 0.02658 0 
-0.284818 0.0300495 0 -0.260857 0.0323579 0 -0.299637 0.036594 0 
-0.30925 0.0387138 0 -0.277654 0.0310979 0 -0.304157 0.0384281 0 
-0.263116 0.0252394 0 -0.321992 0.0454227 0 -0.0579682 -0.00958619 0 
-0.168302 0.00420243 0 0 0 0 -0.176931 0.0207361 0 
-0.187838 0.0613824 0 -0.0896582 -0.0284255 0 -0.201486 0.00297005 0 
-0.260914 -0.0187217 0 0 0 0 -0.291462 0.102359 0 
0 0 0 0 0 0 0 0 0 
0 0 0 0 0 0 0 0 0 
0 0 0 -0.226088 0.0614412 0 -0.175515 0.184643 0 
-0.29428 0.0580034 0 0 0 0 0 0 0 
0 0 0 -0.0727335 -0.0297611 0 0 0 0 
0 0 0 0 0 0 0 0 0 
0 0 0 0 0 0 0 0 0 
0 0 0 0 0 0 0 0 0 
-0.178269 -0.00143404 0 -0.132709 0.105853 0 -0.245323 0.0167561 0 
-0.151764 -0.0214002 0 -0.221641 0.0133161 0 0.0595794 -0.0568503 0 
-0.0186819 -0.0368139 0 -0.292518 0.070469 0 -0.119717 -0.0764251 0 
-0.0507866 -0.0227511 0 -0.285096 0.0166967 0 -0.0228019 -0.0372229 0 
0 0 0 -0.224131 0.000422053 0 -0.277727 0.0173243 0 
-0.16717 -0.00702126 0 0.0351337 0.139573 0 -0.303691 -0.0433123 0 
-0.287322 -0.0686416 0 -0.311763 -0.0241844 0 -0.301082 -0.0127173 0 
-0.298138 0.00485662 0 -0.283439 -0.0252009 0 0.151897 -0.0382776 0 
0.203558 -0.0277123 0 0.27189 -0.0060686 0 0.25295 -0.000628119 0 
0.250813 -0.0040738 0 0.229871 -0.0105471 0 0.231533 -0.0127068 0 
0.237137 -0.0186317 0 0.27026 -0.00444828 0 0 0 0 
0 0 0 0 0 0 0 0 0 
0 0 0 0 0 0 0 0 0 
0.00308816 0.0278849 0 -0.104291 0.0291454 0 0 0 0 
0 0 0 -0.0173733 0.00633041 0 -0.0682928 -0.00601826 0 
-0.0276426 0.0118785 0 0 0 0 0.0149588 -0.000630791 0 
0 0 0 -0.162011 0.0353502 0 -0.0664951 0.0342811 0 
0 0 0 0.0584547 -0.125894 0 0 0 0 
0 0 0 -0.299503 -0.0266548 0 0 0 0 
-0.328579 -0.00331382 0 -0.281317 0.0435802 0 0 0 0 
-0.335208 0.0590775 0 -0.323347 0.0665412 0 -0.313643 0.0560422 0 
-0.320327 0.0412808 0 -0.335353 0.0483547 0 -0.324426 0.0440925 0 
-0.324825 0.0350505 0 -0.317148 0.0346635 0 -0.300367 0.0197485 0 
0 0 0 0 0 0 0 0 0 
-0.320398 -0.0153424 0 -0.297188 0.0417582 0 -0.253585 0.0324454 0 
-0.304712 0.0431445 0 -0.291109 0.0469683 0 -0.311865 0.0433242 0 
-0.301067 0.0449729 0 -0.120808 0.0437406 0 -0.226065 0.00730539 0 
-0.238032 0.0457553 0 -0.228661 0.047843 0 -0.26299 0.0501896 0 
-0.279102 0.0449083 0 0 0 0 0.0682969 0.0150784 0 
0 0 0 -0.0534722 0.0322455 0 0.0126373 0.0643435 0 
-0.116705 0.0642947 0 0.0352883 -0.0377806 0 0 0 0 
-0.330573 0.0527023 0 0 0 0 0.173418 -0.0635528 0 
0 0 0 
FIELD FieldData 11
IBC 1 946 int
0 0 0 0 0 0 0 0 1 
1 0 1 1 0 0 0 0 0 
0 0 1 0 1 1 1 1 1 
0 0 1 1 1 1 0 0 0 
0 0 0 0 0 1 1 1 0 
1 1 0 1 1 1 1 1 0 
0 0 0 0 0 0 0 0 0 
1 0 1 1 1 1 1 1 1 
1 1 1 1 1 1 1 1 1 
1 1 0 0 0 0 0 0 0 
0 0 0 0 0 1 1 1 1 
1 1 1 1 1 1 1 1 1 
1 0 0 0 0 0 0 1 1 
0 0 0 0 1 0 0 0 0 
1 0 1 1 1 1 1 1 1 
1 0 0 1 0 0 1 1 1 
1 1 1 1 1 1 1 1 1 
1 1 1 1 1 1 1 1 1 
1 1 1 1 0 1 1 1 1 
1 1 0 1 1 0 0 0 0 
1 1 1 1 1 1 1 0 0 
0 0 0 0 0 0 0 0 0 
0 0 1 1 1 1 1 1 1 
1 1 1 1 1 1 1 1 1 
1 1 1 1 0 0 1 1 1 
1 1 1 1 1 1 1 1 1 
1 1 0 1 1 1 1 1 1 
1 1 1 0 1 1 1 1 1 
1 1 1 0 1 1 1 1 0 
1 0 0 0 1 1 1 0 1 
1 1 1 1 1 1 1 1 1 
1 1 1 1 1 1 1 1 1 
1 1 1 1 1 1 1 1 1 
1 1 1 1 1 1 1 1 1 
1 1 1 1 1 1 1 1 1 
1 1 1 1 1 1 1 1 1 
1 1 1 1 1 1 1 1 1 
1 1 1 1 1 1 1 1 1 
1 1 1 1 1 1 1 1 1 
1 1 1 1 1 1 0 1 1 
1 1 1 0 0 0 1 1 1 
1 1 1 1 1 1 0 1 1 
1 1 1 1 1 1 0 0 0 
0 1 1 1 1 1 1 1 1 
1 0 1 1 1 1 0 1 1 
1 1 1 1 1 1 1 1 1 
1 1 1 1 1 1 1 0 1 
0 0 1 0 1 1 1 1 1 
1 1 1 1 1 1 1 1 1 
1 1 1 0 1 1 1 1 1 
0 0 0 0 0 0 0 0 0 
1 0 0 1 0 0 0 1 0 
0 1 1 1 1 1 1 1 1 
1 1 1 1 1 1 1 1 1 
1 1 1 1 1 0 1 1 1 
1 1 1 1 1 1 1 1 1 
1 1 1 1 0 0 1 1 0 
1 1 0 1 1 1 0 0 0 
1 1 1 1 1 1 0 1 0 
0 0 0 0 1 1 1 1 1 
0 1 1 1 1 1 1 1 1 
1 1 1 0 1 1 1 1 1 
1 1 1 1 1 1 1 0 1 
1 1 1 0 1 1 0 1 0 
1 0 0 0 0 0 0 0 1 
0 1 1 1 0 1 1 1 0 
1 0 1 1 1 0 0 1 0 
0 0 1 1 0 0 1 0 0 
0 0 0 1 1 0 1 1 1 
1 1 1 1 0 1 1 1 1 
1 1 1 1 1 1 1 1 1 
1 0 1 1 1 0 1 1 1 
0 0 0 0 1 1 1 1 1 
1 1 1 1 1 1 1 1 1 
1 1 1 1 1 1 1 1 1 
1 1 1 1 0 0 0 0 0 
0 0 1 1 1 1 1 1 1 
1 1 1 1 1 1 1 1 1 
1 1 1 1 1 1 1 1 1 
1 1 1 1 1 1 1 1 1 
1 1 1 1 1 1 1 1 1 
0 0 1 1 1 1 1 0 0 
1 0 0 1 1 0 0 1 1 
0 1 1 1 1 1 1 1 1 
1 1 1 1 0 0 1 1 1 
1 0 0 0 1 1 1 0 1 
1 0 0 0 1 1 1 1 1 
1 0 0 0 1 1 1 1 1 
1 1 1 1 1 0 1 1 1 
1 1 0 1 1 1 1 1 1 
1 1 1 1 1 1 1 1 1 
1 1 1 1 0 1 1 0 0 
1 0 0 0 1 1 1 1 0 
0 1 0 1 0 1 0 0 1 
0 1 0 1 1 1 1 1 1 
1 1 1 1 1 1 1 1 1 
1 1 1 1 1 1 1 1 1 
1 1 1 1 1 1 1 1 0 
1 0 0 0 1 0 1 1 0 
0 1 1 1 0 1 1 1 1 
0 1 0 0 1 0 1 1 1 
1 1 1 1 1 1 1 1 1 
0 1 0 1 1 1 1 1 1 
1 1 1 1 1 1 1 1 1 
0 1 1 1 1 0 1 1 1 
0 
Bed%20Elevation 1 946 double
3.80922 3.47568 3.60909 4 2.80926 3.63585 3.54894 3.62073 1 
1 3.62829 1.13246 1.1249 3.63207 2.38416 2.38038 3.63396 3.65252 
3.63018 2.73136 1 2.27568 1 1.4458 1 1 1.37472 
3.62451 2.75909 1 0.671326 1 1 3.6264 2.37403 2.87293 
3.61162 3.62262 2.7067 3.61617 2.61304 1.29977 1 1 3.64418 
1 1 3.61845 1 1.67178 1.90096 1.12807 1.73912 2.35595 
2.84144 3.57901 3.61389 2.61959 3.59405 3.60706 2.48346 2.84942 3.60934 
1 3.64002 1 1 1 1 0.954435 1 1 
1 1 1 1 1.38818 1.53917 1.63296 1 1 
1.63903 1 3.58653 2.19557 3.60157 2.61528 2.48563 3.60479 3.60451 
3.59781 2.64256 2.78739 2.29092 3.59029 1 1 1.70314 1 
2.10471 1.16412 1.14097 1.98464 1 1 1 1 1 
1.62108 3.63793 2.62935 3.6421 2.38083 2.81215 3.64835 1.24973 1.73482 
2.40484 2.76206 3.64627 2.63603 1.47418 2.89023 3.65044 3.74251 3.66085 
1 3.70915 1.08546 1 1.46186 1 1 1 1 
1.80982 2.56854 3.65669 2.02696 3.6546 2.36899 1.90301 1 1 
1 1 1 1.02396 1 1 1 1 1 
1 1 1 1 1 1 1 1 1 
1 1 1 1 3.69248 1.18294 1 1 1 
1.22682 1 2.1051 1.11842 1.93295 4 2.78445 3.66294 3.70082 
1 1 1 1 1.91004 1 1.8213 2.44242 2.70624 
3.69665 2.85858 2.03835 4 3.48756 3.68831 3.17341 3.13834 4 
4 4 1 1 1 1 1 1 1 
1 1 1 1 1 1 1 1 1 
1 1 1 1 2.68045 2.80097 1.75936 1 1 
1 1 1 0.969343 1 1 0.801701 0.416458 0.703222 
0.672416 0.788903 3.65877 1 1 1 1 1 1 
1 1 1 3.56397 1 1 1 1 1.45562 
1 1 1 3.57149 1 2.01627 1.19083 1.47584 2.63461 
1 2.79078 2.67021 3.57525 1.85507 1 1 2.40379 1 
0.0756019 1 1 1 1 1 1 1 1 
1 1 1 1 1 1 1 1 1 
1 0.72796 0.990465 1 1 0.551537 0.82793 0.758722 1 
1 1 1 1 1 1 1 1 1 
1 1 1 1.26771 1 0.650391 1 0.80525 0.908072 
0.928767 1.76457 1 1 1 1 1 1 1 
1 1.6293 0.28438 1 1 1 1 1 1 
1 1 1 1 1 1 1 1 1 
1 1 1 1 1 0.900047 1 0.462797 0.59777 
0.744158 1 1 1 1 1 3.72583 1 1 
1 1 1.1138 2.37958 3.70499 2.81469 1 1 1 
1 1 1 1 0.613514 1 3.71749 1.64303 1 
1 1 1 0.981033 0.685439 1 3.71332 2.726 2.7032 
2.25561 1 1.06809 1 1 1 1 0.883855 0.774542 
0.0340398 3.72166 1.39499 1 1 1 2.29682 1 1 
1 1 0.332945 0.339395 0.0263495 0.145991 0.319024 0.0586676 0.266394 
0.606091 0.343815 0.566515 0.248477 0.416186 0.154756 1 2.05193 1.28068 
2.07506 3.77586 1 3.73417 1.46514 0.406986 1 1.99182 0.27777 
1 1 1.14983 0.985078 0.576337 1 1 1.36364 1 
1 0.862439 1.31123 3.75919 1 1 1 1 1 
2.07451 3.0079 3.28795 2.62591 3.11795 2.42129 3.69575 2.77209 3.51352 
1.66251 2.38913 2.31788 1.6039 2.24249 3.23956 3.33972 1 3.93447 
3.66156 1.5432 1 0.774697 1 1 1 1 1 
1 1 1 1 1 1 1 1 1 
1 1 1 1 1 3.75085 1.35471 1.15098 1 
1 1 1.06422 1.76021 1 1 1 1.80171 1.9031 
1 1 1.73495 1 2.55041 2.71589 1 1 3.74668 
1 1 2.69839 1 1.52048 1 2.03807 3.73834 2.82982 
1 1 1 1 1 2.03059 2.59062 1 3.31876 
3.08499 3.2191 2.13246 2.39086 1 1.19075 1 1.25166 1.65101 
2.09008 1.44426 1 1 1 1 1.31862 1 1 
1 1 1 3.19075 1 1 1 1 1 
1 1 1 1 1 1 1 3.76752 1.77864 
1 1 1.27965 3.79254 1.2445 1 2.113 1.10616 3.75502 
1 2.74386 2.9588 2.74995 2.19643 3.77169 2.78019 3.7842 1.83582 
2.97137 1 1 1 3.80279 1 1 1 3.51231 
1 3.76336 1.88688 1.19371 1.23822 2.24307 2.90418 1.98617 3.78003 
3.0685 2.89108 1.81351 1 3.78837 2.88495 1 3.80088 2.02988 
3.79671 2.24678 2.97198 1 1.80922 2.57505 1 1 1 
1 1 1.00495 1 3.19966 1 1 1 1 
1 1 1 1 1 1 1 1.16626 1 
1 2.80922 1 1 1 2.28106 1.92652 1.83634 1 
2.83588 2.79055 2.19075 2.78154 1 1 1 1.14591 1.62354 
1 1 1 1.18394 1 1 1 1 1 
1 1 1 1 1 1 1 1 1 
1 1 1 1 3.85738 3.40499 3.1608 2.87629 3.80926 
3.30758 3.78919 1 1 1 1 1 1 1 
1 1 1 1 1 1 1 1 1 
1 1 1 1 1 1 1 1 1 
1 1 1 0.901676 1 0.623429 1 0.80194 0.800434 
0.244839 0.51696 0.367427 0.399317 0.241941 0.832301 0.404559 1.14649 1 
3.55646 2.47395 1 1.89573 1 1 1 3.53062 2.07716 
1 2.2639 3.56021 1 0.227198 3.73 2.76714 1.47819 1 
3.80505 1 1 1 1.23341 1 1 1 1 
1.44565 1 1 1 3.52146 2.15374 1 1 1.21036 
1 3.53978 3.52604 2.10223 1.25285 1 1 2.49925 1 
1.00269 3.5352 2.51442 3.54436 1 1 1 1 1 
1 2.34659 2.84654 2.70939 1 1 1 1 1 
1 1 1 1 1 3.49399 1.85453 1 1 
1 1 3.50315 1 1 1 1 1 1 
1 1 1 1 1 1 1 1.69668 1 
1 1 1 1 2.05343 1 1.63471 3.50773 2.65865 
1.80086 2.61432 2.74403 3.51688 1 1 1 1.72195 3.49857 
2.69086 1 3.48483 1.5611 2.54287 1.62188 2.49467 3.48941 1.81506 
3.48026 1.4323 2.47568 1 1 1 1 1 1.22697 
1 1 1 1 1 1 1 1 1 
1 1 1 1 1 1 1 1 1 
1 1 1 1 1 1 1 1 3.68987 
1.64708 3.26348 2.61412 2.14011 1.76644 2.46076 1 1 2.39633 
3.08163 1.05275 1 1 2.55251 1.4139 1.44679 1 1 
2.29717 0.0321048 3.5527 2.63222 1 2.64479 1 1 1.14864 
1 1 1 1 1 1 1 1 1 
2.47422 1.85991 2.72005 1 1 1 1 1 1 
1 1 1 1 1 1 1 1.97895 1.5609 
2.32878 1 1 1 1 2.13283 1 1.95961 1 
3.77692 
Elevation 1 946 double
3.80922 3.47568 3.60909 4 2.80926 3.63585 3.54894 3.62073 1 
1 3.62829 1.13246 1.1249 3.63207 2.38416 2.38038 3.63396 3.65252 
3.63018 2.73136 1 2.27568 1 1.4458 1 1 1.37472 
3.62451 2.75909 1 0.671326 1 1 3.6264 2.37403 2.87293 
3.61162 3.62262 2.7067 3.61617 2.61304 1.29977 1 1 3.64418 
1 1 3.61845 1 1.67178 1.90096 1.12807 1.73912 2.35595 
2.84144 3.57901 3.61389 2.61959 3.59405 3.60706 2.48346 2.84942 3.60934 
1 3.64002 1 1 1 1 0.954435 1 1 
1 1 1 1 1.38818 1.53917 1.63296 1 1 
1.63903 1 3.58653 2.19557 3.60157 2.61528 2.48563 3.60479 3.60451 
3.59781 2.64256 2.78739 2.29092 3.59029 1 1 1.70314 1 
2.10471 1.16412 1.14097 1.98464 1 1 1 1 1 
1.62108 3.63793 2.62935 3.6421 2.38083 2.81215 3.64835 1.24973 1.73482 
2.40484 2.76206 3.64627 2.63603 1.47418 2.89023 3.65044 3.74251 3.66085 
1 3.70915 1.08546 1 1.46186 1 1 1 1 
1.80982 2.56854 3.65669 2.02696 3.6546 2.36899 1.90301 1 1 
1 1 1 1.02396 1 1 1 1 1 
1 1 1 1 1 1 1 1 1 
1 1 1 1 3.69248 1.18294 1 1 1 
1.22682 1 2.1051 1.11842 1.93295 4 2.78445 3.66294 3.70082 
1 1 1 1 1.91004 1 1.8213 2.44242 2.70624 
3.69665 2.85858 2.03835 4 3.48756 3.68831 3.17341 3.13834 4 
4 4 1 1 1 1 1 1 1 
1 1 1 1 1 1 1 1 1 
1 1 1 1 2.68045 2.80097 1.75936 1 1 
1 1 1 0.969343 1 1 0.801701 0.416458 0.703222 
0.672416 0.788903 3.65877 1 1 1 1 1 1 
1 1 1 3.56397 1 1 1 1 1.45562 
1 1 1 3.57149 1 2.01627 1.19083 1.47584 2.63461 
1 2.79078 2.67021 3.57525 1.85507 1 1 2.40379 1 
0.0756019 1 1 1 1 1 1 1 1 
1 1 1 1 1 1 1 1 1 
1 0.72796 0.990465 1 1 0.551537 0.82793 0.758722 1 
1 1 1 1 1 1 1 1 1 
1 1 1 1.26771 1 0.650391 1 0.80525 0.908072 
0.928767 1.76457 1 1 1 1 1 1 1 
1 1.6293 0.28438 1 1 1 1 1 1 
1 1 1 1 1 1 1 1 1 
1 1 1 1 1 0.900047 1 0.462797 0.59777 
0.744158 1 1 1 1 1 3.72583 1 1 
1 1 1.1138 2.37958 3.70499 2.81469 1 1 1 
1 1 1 1 0.613514 1 3.71749 1.64303 1 
1 1 1 0.981033 0.685439 1 3.71332 2.726 2.7032 
2.25561 1 1.06809 1 1 1 1 0.883855 0.774542 
0.0340398 3.72166 1.39499 1 1 1 2.29682 1 1 
1 1 0.332945 0.339395 0.0263495 0.145991 0.319024 0.0586676 0.266394 
0.606091 0.343815 0.566515 0.248477 0.416186 0.154756 1 2.05193 1.28068 
2.07506 3.77586 1 3.73417 1.46514 0.406986 1 1.99182 0.27777 
1 1 1.14983 0.985078 0.576337 1 1 1.36364 1 
1 0.862439 1.31123 3.75919 1 1 1 1 1 
2.07451 3.0079 3.28795 2.62591 3.11795 2.42129 3.69575 2.77209 3.51352 
1.66251 2.38913 2.31788 1.6039 2.24249 3.23956 3.33972 1 3.93447 
3.66156 1.5432 1 0.774697 1 1 1 1 1 
1 1 1 1 1 1 1 1 1 
1 1 1 1 1 3.75085 1.35471 1.15098 1 
1 1 1.06422 1.76021 1 1 1 1.80171 1.9031 
1 1 1.73495 1 2.55041 2.71589 1 1 3.74668 
1 1 2.69839 1 1.52048 1 2.03807 3.73834 2.82982 
1 1 1 1 1 2.03059 2.59062 1 3.31876 
3.08499 3.2191 2.13246 2.39086 1 1.19075 1 1.25166 1.65101 
2.09008 1.44426 1 1 1 1 1.31862 1 1 
1 1 1 3.19075 1 1 1 1 1 
1 1 1 1 1 1 1 3.76752 1.77864 
1 1 1.27965 3.79254 1.2445 1 2.113 1.10616 3.75502 
1 2.74386 2.9588 2.74995 2.19643 3.77169 2.78019 3.7842 1.83582 
2.97137 1 1 1 3.80279 1 1 1 3.51231 
1 3.76336 1.88688 1.19371 1.23822 2.24307 2.90418 1.98617 3.78003 
3.0685 2.89108 1.81351 1 3.78837 2.88495 1 3.80088 2.02988 
3.79671 2.24678 2.97198 1 1.80922 2.57505 1 1 1 
1 1 1.00495 1 3.19966 1 1 1 1 
1 1 1 1 1 1 1 1.16626 1 
1 2.80922 1 1 1 2.28106 1.92652 1.83634 1 
2.83588 2.79055 2.19075 2.78154 1 1 1 1.14591 1.62354 
1 1 1 1.18394 1 1 1 1 1 
1 1 1 1 1 1 1 1 1 
1 1 1 1 3.85738 3.40499 3.1608 2.87629 3.80926 
3.30758 3.78919 1 1 1 1 1 1 1 
1 1 1 1 1 1 1 1 1 
1 1 1 1 1 1 1 1 1 
1 1 1 0.901676 1 0.623429 1 0.80194 0.800434 
0.244839 0.51696 0.367427 0.399317 0.241941 0.832301 0.404559 1.14649 1 
3.55646 2.47395 1 1.89573 1 1 1 3.53062 2.07716 
1 2.2639 3.56021 1 0.227198 3.73 2.76714 1.47819 1 
3.80505 1 1 1 1.23341 1 1 1 1 
1.44565 1 1 1 3.52146 2.15374 1 1 1.21036 
1 3.53978 3.52604 2.10223 1.25285 1 1 2.49925 1 
1.00269 3.5352 2.51442 3.54436 1 1 1 1 1 
1 2.34659 2.84654 2.70939 1 1 1 1 1 
1 1 1 1 1 3.49399 1.85453 1 1 
1 1 3.50315 1 1 1 1 1 1 
1 1 1 1 1 1 1 1.69668 1 
1 1 1 1 2.05343 1 1.63471 3.50773 2.65865 
1.80086 2.61432 2.74403 3.51688 1 1 1 1.72195 3.49857 
2.69086 1 3.48483 1.5611 2.54287 1.62188 2.49467 3.48941 1.81506 
3.48026 1.4323 2.47568 1 1 1 1 1 1.22697 
1 1 1 1 1 1 1 1 1 
1 1 1 1 1 1 1 1 1 
1 1 1 1 1 1 1 1 3.68987 
1.64708 3.26348 2.61412 2.14011 1.76644 2.46076 1 1 2.39633 
3.08163 1.05275 1 1 2.55251 1.4139 1.44679 1 1 
2.29717 0.0321048 3.5527 2.63222 1 2.64479 1 1 1.14864 
1 1 1 1 1 1 1 1 1 
2.47422 1.85991 2.72005 1 1 1 1 1 1 
1 1 1 1 1 1 1 1.97895 1.5609 
2.32878 1 1 1 1 2.13283 1 1.95961 1 
3.77692 
Depth 1 946 double
0 0 0 0 0 0 0 0 1.00432 
1.00599 0 0.874981 0.884874 0 0 0 0 0 
0 0 1.00845 0 1.00667 0.565903 1.00674 1.00727 0.635166 
0 0 1.02728 1.3372 1.00603 1.00587 0 0 0 
0 0 0 0 0 0.712015 1.00572 1.00525 0 
1.00653 1.00609 0 1.01741 0.344044 0.117766 0.878662 0.274123 0 
0 0 0 0 0 0 0 0 0 
1.00577 0 1.00642 1.00606 1.00604 1.00724 1.05307 1.00685 1.00607 
1.0059 1.01042 1.00595 1.00996 0.620833 0.473473 0.380563 1.01106 1.01001 
0.371761 1.00759 0 0 0 0 0 0 0 
0 0 0 0 0 1.00538 1.00624 0.316683 1.01122 
0.0586073 0.8476 0.870853 0.112256 1.00986 1.00723 1.00587 1.00701 1.0061 
0.390783 0 0 0 0 0 0 0.765679 0.287178 
0 0 0 0 0.541432 0 0 0 0 
1.00711 0 0.929347 1.007 0.554131 1.00899 1.01121 1.00665 1.00678 
0.211437 0 0 0.00331924 0 0 0.123953 1.00586 1.00662 
1.0072 1.00633 1.00995 0.984745 1.00297 1.00721 1.00645 1.00714 1.0069 
1.0068 1.00637 1.00621 1.00637 1.00653 1.00697 1.00656 1.00616 1.00656 
1.00582 1.00708 1.00607 1.00496 0 0.828961 1.00885 1.00736 1.00679 
0.787029 1.00697 0 0.893985 0.09557 0 0 0 0 
1.00724 1.00547 1.00561 1.00543 0.106864 1.0113 0.196632 0 0 
0 0 0 0 0 0 0 0 0 
0 0 1.00528 1.00626 1.00436 1.0041 1.01229 1.00591 1.00496 
1.00746 1.00748 1.00584 1.00492 1.0059 1.00599 1.0059 1.00633 1.00609 
1.00703 1.00575 1.00562 1.00591 0 0 0.255164 1.01164 1.00698 
1.00649 1.00661 1.00645 1.03754 1.00694 1.00646 1.20583 1.59231 1.30523 
1.33511 1.21894 0 1.00605 1.00811 1.00737 1.0061 1.00609 1.00623 
1.00555 1.00751 1.00591 0 1.00618 1.00609 1.00563 1.0053 0.559267 
1.0054 1.01343 1.00604 0 1.00833 0.0168974 0.826793 0.533942 0 
1.009 0 0 0 0.172452 1.00573 1.00589 0 1.00679 
1.93254 1.00615 1.00556 1.00585 1.00492 1.00553 1.00539 1.00516 1.00522 
1.00602 1.00445 1.00483 1.00496 1.00516 1.00532 1.00516 1.00576 1.00619 
1.00485 1.27998 1.01438 1.00584 1.00524 1.45583 1.17818 1.24721 1.0042 
1.00473 1.00248 1.00549 1.00371 1.00458 1.00122 1.00503 1.00411 1.0051 
1.00484 1.00161 1.00232 0.743389 1.00482 1.34886 1.00152 1.19668 1.10144 
1.08046 0.240083 0.99971 1.00071 0.998879 1.00482 1.00432 1.00418 1.00491 
1.00242 0.383275 1.72384 1.0058 1.00585 1.00694 1.00644 1.00621 1.00636 
1.00602 1.00592 1.00659 1.00653 1.00717 1.00646 1.00653 1.00634 1.00797 
1.00625 1.00706 1.00529 1.00589 1.00551 1.10631 1.00662 1.54386 1.41018 
1.26246 1.00587 1.00682 1.00669 1.00657 1.00634 0 1.00728 1.00599 
1.00622 1.00494 0.896308 0 0 0 1.00642 1.00614 1.00612 
1.00616 1.00593 1.00544 1.00548 1.39172 1.00585 0 0.371463 1.00669 
1.00765 1.00607 1.00546 1.02422 1.32181 1.0061 0 0 0 
0 1.0098 0.938857 1.00638 1.00616 1.00628 1.00553 1.12147 1.23187 
1.97365 0 0.615863 1.00579 1.00553 1.00691 0 1.00568 1.00656 
1.00578 1.00539 1.67233 1.66628 1.98054 1.85554 1.6885 1.94878 1.74173 
1.40124 1.66182 1.43564 1.75699 1.58641 1.85452 1.00918 0 0.728387 
0 0 1.00559 0 0.554383 1.60651 1.00442 0.0392132 1.7333 
1.00468 1.00377 0.863525 1.01283 1.42483 1.00546 1.00473 0.641873 1.00454 
1.0042 1.13849 0.690371 0 1.00294 1.00484 1.00501 1.00501 1.00524 
0 0 0 0 0 0 0 0 0 
0.359428 0 0 0.402375 0 0 0 1.00367 0 
0 0.464355 1.0019 1.22287 1.00172 1.00432 1.00291 1.004 1.00282 
1.00331 1.00444 1.00421 1.00488 1.00409 1.00485 1.00495 1.00515 1.00368 
1.005 1.00247 1.00469 1.00488 1.00264 0 0.653344 0.851019 1.00003 
1.00081 1.00365 0.941452 0.2516 1.00526 1.00539 1.00523 0.214822 0.123464 
0.999412 1.01182 0.274494 1.00766 0 0 1.01254 1.00597 0 
1.0061 1.00585 0 1.00163 0.491166 0.999747 0 0 0 
1.00515 1.00539 1.00814 1.00118 1.0125 0.00666396 0 1.00588 0 
0 0 0 0 1.00505 0.820618 1.01107 0.757912 0.36384 
0 0.568771 1.00081 0.999759 0.999956 0.998752 0.695394 1.00496 1.00557 
1.0036 1.00373 1.00595 0 0.99959 0.999705 1.00004 0.997488 0.998287 
1.00027 0.999004 1.00502 1.00543 1.00531 1.00504 1.0063 0 0.236185 
1.01295 1.00526 0.734289 0 0.768676 1.01046 0 0.906009 0 
1.00546 0 0 0 0 0 0 0 0.16945 
0 1.00449 1.00781 1.00396 0 0.999454 1.00065 1.00162 0 
1.00491 0 0.14048 0.81546 0.768257 0 0 0.00765591 0 
0 0 0.203131 1.01136 0 0 1.00671 0 0 
0 0 0 1.00452 0.20448 0 1.00408 1.0047 1.00466 
1.00331 1.00723 1.00581 1.00278 0 1.00213 1.00143 1.00348 1.00289 
1.00232 1.00105 1.00337 1.00303 1.00104 1.00195 1.00497 0.840191 1.01005 
1.00522 0 1.00488 1.00483 1.005 0 0.0907079 0.174892 1.00957 
0 0 0 0 1.00507 1.0054 1.00467 0.86227 0.392708 
1.00547 1.00482 1.00472 0.835675 1.0068 1.00803 1.00554 1.00884 1.0048 
1.00581 1.00202 1.00588 1.00612 1.00306 1.00744 1.00531 1.00534 1.00558 
1.00571 1.00579 1.00558 1.00555 0 0 0 0 0 
0 0 1.00492 1.00488 1.00568 1.00617 1.00611 1.006 1.00595 
1.00603 1.0064 1.00498 1.00624 1.012 1.00579 1.00508 1.00498 1.00513 
1.01098 1.00542 1.00489 1.00531 1.00522 1.00519 1.00504 1.00518 1.00492 
1.00516 1.0048 1.0054 1.10548 1.00606 1.38498 1.00546 1.20564 1.20722 
1.76424 1.49225 1.64039 1.60854 1.76649 1.1755 1.60477 0.862403 1.00772 
0 0 1.00487 0.108137 1.00469 1.00416 1.00847 0 0 
1.00341 0 0 1.00577 1.78 0 0 0.53793 0.999718 
0 1.00301 1.00366 1.00328 0.768608 1.00284 1.00251 1.0016 1.00147 
0.563428 1.00069 1.00267 1.0024 0 0 1.00339 1.00578 0.7967 
1.00093 0 0 0 0.750191 1.00107 0.99991 0 1.00067 
1.00337 0 0 0 1.00083 1.00043 1.00026 1.00049 1.00027 
1.00684 0 0 0 1.00068 1.00132 1.0001 1.00037 1.00048 
1.00044 1.00072 1.00049 1.00037 1.00538 0 0.1523 1.00031 1.00005 
1.0008 1.00024 0 1.00047 0.999944 1.00015 1.00042 1.00057 1.00059 
1.00065 0.999693 1.00004 1.00071 0.999417 1.00736 1.00121 0.310615 1.00066 
0.999719 1.00491 1.00422 1.00163 0 0.999845 0.377458 0 0 
0.203501 0 0 0 1.00225 1.00952 1.00057 0.277974 0 
0 0.999619 0 0.439876 0 0.366457 0 0 0.178897 
0 0.570959 0 0.998369 1.01003 0.998967 1.0014 1.00077 0.783319 
1.00522 0.997466 0.996505 1.00082 0.999828 1.00209 0.999793 0.999571 0.999023 
0.998749 0.996935 1.00039 0.999886 1.00023 0.999719 0.99984 0.999276 1.00723 
1.00524 1.00504 1.00546 1.00545 1.00552 1.00528 1.00475 1.00497 0 
0.362932 0 0 0 0.251803 0 1.00267 1.00105 0 
0 0.956072 1.00085 1.00346 0 0.590951 0.559158 1.00075 1.00006 
0 1.97612 0 0 1.00265 0 1.00098 0.999916 0.852514 
0.999477 0.999616 0.999012 0.998712 0.999085 0.999443 0.999081 0.999623 0.999702 
0 0.145239 0 1.00062 0.99991 0.999537 0.999968 0.999984 0.999609 
0.999781 0.997721 0.999861 0.999392 0.999534 0.999998 0.999931 0.0120813 0.444667 
0 1.00334 1.00223 0.998264 1.00282 0 0.99955 0.0491668 1.00557 
0 
Water%20Surface%20Elevation 1 946 double
3.80922 3.47568 3.60909 4 2.80926 3.63585 3.54894 3.62073 2.00432 
2.00599 3.62829 2.00744 2.00978 3.63207 2.38416 2.38038 3.63396 3.65252 
3.63018 2.73136 2.00845 2.27568 2.00667 2.0117 2.00674 2.00727 2.00989 
3.62451 2.75909 2.02728 2.00852 2.00603 2.00587 3.6264 2.37403 2.87293 
3.61162 3.62262 2.7067 3.61617 2.61304 2.01179 2.00572 2.00525 3.64418 
2.00653 2.00609 3.61845 2.01741 2.01582 2.01873 2.00673 2.01324 2.35595 
2.84144 3.57901 3.61389 2.61959 3.59405 3.60706 2.48346 2.84942 3.60934 
2.00577 3.64002 2.00642 2.00606 2.00604 2.00724 2.0075 2.00685 2.00607 
2.0059 2.01042 2.00595 2.00996 2.00901 2.01264 2.01352 2.01106 2.01001 
2.01079 2.00759 3.58653 2.19557 3.60157 2.61528 2.48563 3.60479 3.60451 
3.59781 2.64256 2.78739 2.29092 3.59029 2.00538 2.00624 2.01982 2.01122 
2.16332 2.01172 2.01182 2.09689 2.00986 2.00723 2.00587 2.00701 2.0061 
2.01186 3.63793 2.62935 3.6421 2.38083 2.81215 3.64835 2.01541 2.02199 
2.40484 2.76206 3.64627 2.63603 2.01561 2.89023 3.65044 3.74251 3.66085 
2.00711 3.70915 2.01481 2.007 2.01599 2.00899 2.01121 2.00665 2.00678 
2.02126 2.56854 3.65669 2.03028 3.6546 2.36899 2.02696 2.00586 2.00662 
2.0072 2.00633 2.00995 2.00871 2.00297 2.00721 2.00645 2.00714 2.0069 
2.0068 2.00637 2.00621 2.00637 2.00653 2.00697 2.00656 2.00616 2.00656 
2.00582 2.00708 2.00607 2.00496 3.69248 2.0119 2.00885 2.00736 2.00679 
2.01385 2.00697 2.1051 2.0124 2.02852 4 2.78445 3.66294 3.70082 
2.00724 2.00547 2.00561 2.00543 2.0169 2.0113 2.01793 2.44242 2.70624 
3.69665 2.85858 2.03835 4 3.48756 3.68831 3.17341 3.13834 4 
4 4 2.00528 2.00626 2.00436 2.0041 2.01229 2.00591 2.00496 
2.00746 2.00748 2.00584 2.00492 2.0059 2.00599 2.0059 2.00633 2.00609 
2.00703 2.00575 2.00562 2.00591 2.68045 2.80097 2.01452 2.01164 2.00698 
2.00649 2.00661 2.00645 2.00688 2.00694 2.00646 2.00753 2.00877 2.00845 
2.00753 2.00784 3.65877 2.00605 2.00811 2.00737 2.0061 2.00609 2.00623 
2.00555 2.00751 2.00591 3.56397 2.00618 2.00609 2.00563 2.0053 2.01488 
2.0054 2.01343 2.00604 3.57149 2.00833 2.03316 2.01762 2.00978 2.63461 
2.009 2.79078 2.67021 3.57525 2.02753 2.00573 2.00589 2.40379 2.00679 
2.00814 2.00615 2.00556 2.00585 2.00492 2.00553 2.00539 2.00516 2.00522 
2.00602 2.00445 2.00483 2.00496 2.00516 2.00532 2.00516 2.00576 2.00619 
2.00485 2.00794 2.00485 2.00584 2.00524 2.00736 2.00611 2.00593 2.0042 
2.00473 2.00248 2.00549 2.00371 2.00458 2.00122 2.00503 2.00411 2.0051 
2.00484 2.00161 2.00232 2.0111 2.00482 1.99925 2.00152 2.00193 2.00951 
2.00922 2.00466 1.99971 2.00071 1.99888 2.00482 2.00432 2.00418 2.00491 
2.00242 2.01257 2.00822 2.0058 2.00585 2.00694 2.00644 2.00621 2.00636 
2.00602 2.00592 2.00659 2.00653 2.00717 2.00646 2.00653 2.00634 2.00797 
2.00625 2.00706 2.00529 2.00589 2.00551 2.00635 2.00662 2.00666 2.00795 
2.00662 2.00587 2.00682 2.00669 2.00657 2.00634 3.72583 2.00728 2.00599 
2.00622 2.00494 2.01011 2.37958 3.70499 2.81469 2.00642 2.00614 2.00612 
2.00616 2.00593 2.00544 2.00548 2.00524 2.00585 3.71749 2.01449 2.00669 
2.00765 2.00607 2.00546 2.00525 2.00725 2.0061 3.71332 2.726 2.7032 
2.25561 2.0098 2.00695 2.00638 2.00616 2.00628 2.00553 2.00532 2.00641 
2.00769 3.72166 2.01085 2.00579 2.00553 2.00691 2.29682 2.00568 2.00656 
2.00578 2.00539 2.00528 2.00568 2.00689 2.00153 2.00753 2.00745 2.00813 
2.00733 2.00564 2.00215 2.00547 2.0026 2.00927 2.00918 2.05193 2.00906 
2.07506 3.77586 2.00559 3.73417 2.01952 2.0135 2.00442 2.03103 2.01107 
2.00468 2.00377 2.01336 1.99791 2.00117 2.00546 2.00473 2.00552 2.00454 
2.0042 2.00093 2.0016 3.75919 2.00294 2.00484 2.00501 2.00501 2.00524 
2.07451 3.0079 3.28795 2.62591 3.11795 2.42129 3.69575 2.77209 3.51352 
2.02194 2.38913 2.31788 2.00628 2.24249 3.23956 3.33972 2.00367 3.93447 
3.66156 2.00756 2.0019 1.99757 2.00172 2.00432 2.00291 2.004 2.00282 
2.00331 2.00444 2.00421 2.00488 2.00409 2.00485 2.00495 2.00515 2.00368 
2.005 2.00247 2.00469 2.00488 2.00264 3.75085 2.00805 2.002 2.00003 
2.00081 2.00365 2.00568 2.01181 2.00526 2.00539 2.00523 2.01653 2.02656 
1.99941 2.01182 2.00945 2.00766 2.55041 2.71589 2.01254 2.00597 3.74668 
2.0061 2.00585 2.69839 2.00163 2.01164 1.99975 2.03807 3.73834 2.82982 
2.00515 2.00539 2.00814 2.00118 2.0125 2.03725 2.59062 2.00588 3.31876 
3.08499 3.2191 2.13246 2.39086 2.00505 2.01137 2.01107 2.00957 2.01485 
2.09008 2.01303 2.00081 1.99976 1.99996 1.99875 2.01401 2.00496 2.00557 
2.0036 2.00373 2.00595 3.19075 1.99959 1.9997 2.00004 1.99749 1.99829 
2.00027 1.999 2.00502 2.00543 2.00531 2.00504 2.0063 3.76752 2.01482 
2.01295 2.00526 2.01394 3.79254 2.01317 2.01046 2.113 2.01217 3.75502 
2.00546 2.74386 2.9588 2.74995 2.19643 3.77169 2.78019 3.7842 2.00527 
2.97137 2.00449 2.00781 2.00396 3.80279 1.99945 2.00065 2.00162 3.51231 
2.00491 3.76336 2.02736 2.00917 2.00648 2.24307 2.90418 1.99382 3.78003 
3.0685 2.89108 2.01664 2.01136 3.78837 2.88495 2.00671 3.80088 2.02988 
3.79671 2.24678 2.97198 2.00452 2.0137 2.57505 2.00408 2.0047 2.00466 
2.00331 2.00723 2.01076 2.00278 3.19966 2.00213 2.00143 2.00348 2.00289 
2.00232 2.00105 2.00337 2.00303 2.00104 2.00195 2.00497 2.00646 2.01005 
2.00522 2.80922 2.00488 2.00483 2.005 2.28106 2.01723 2.01123 2.00957 
2.83588 2.79055 2.19075 2.78154 2.00507 2.0054 2.00467 2.00818 2.01624 
2.00547 2.00482 2.00472 2.01961 2.0068 2.00803 2.00554 2.00884 2.0048 
2.00581 2.00202 2.00588 2.00612 2.00306 2.00744 2.00531 2.00534 2.00558 
2.00571 2.00579 2.00558 2.00555 3.85738 3.40499 3.1608 2.87629 3.80926 
3.30758 3.78919 2.00492 2.00488 2.00568 2.00617 2.00611 2.006 2.00595 
2.00603 2.0064 2.00498 2.00624 2.012 2.00579 2.00508 2.00498 2.00513 
2.01098 2.00542 2.00489 2.00531 2.00522 2.00519 2.00504 2.00518 2.00492 
2.00516 2.0048 2.0054 2.00716 2.00606 2.00841 2.00546 2.00758 2.00765 
2.00908 2.00921 2.00782 2.00786 2.00843 2.0078 2.00932 2.00889 2.00772 
3.55646 2.47395 2.00487 2.00386 2.00469 2.00416 2.00847 3.53062 2.07716 
2.00341 2.2639 3.56021 2.00577 2.0072 3.73 2.76714 2.01612 1.99972 
3.80505 2.00301 2.00366 2.00328 2.00202 2.00284 2.00251 2.0016 2.00147 
2.00908 2.00069 2.00267 2.0024 3.52146 2.15374 2.00339 2.00578 2.00706 
2.00093 3.53978 3.52604 2.10223 2.00304 2.00107 1.99991 2.49925 2.00067 
2.00605 3.5352 2.51442 3.54436 2.00083 2.00043 2.00026 2.00049 2.00027 
2.00684 2.34659 2.84654 2.70939 2.00068 2.00132 2.0001 2.00037 2.00048 
2.00044 2.00072 2.00049 2.00037 2.00538 3.49399 2.00683 2.00031 2.00005 
2.0008 2.00024 3.50315 2.00047 1.99994 2.00015 2.00042 2.00057 2.00059 
2.00065 1.99969 2.00004 2.00071 1.99942 2.00736 2.00121 2.00729 2.00066 
1.99972 2.00491 2.00422 2.00163 2.05343 1.99984 2.01216 3.50773 2.65865 
2.00437 2.61432 2.74403 3.51688 2.00225 2.00952 2.00057 1.99992 3.49857 
2.69086 1.99962 3.48483 2.00098 2.54287 1.98833 2.49467 3.48941 1.99396 
3.48026 2.00326 2.47568 1.99837 2.01003 1.99897 2.0014 2.00077 2.01028 
2.00522 1.99747 1.9965 2.00082 1.99983 2.00209 1.99979 1.99957 1.99902 
1.99875 1.99693 2.00039 1.99989 2.00023 1.99972 1.99984 1.99928 2.00723 
2.00524 2.00504 2.00546 2.00545 2.00552 2.00528 2.00475 2.00497 3.68987 
2.01001 3.26348 2.61412 2.14011 2.01824 2.46076 2.00267 2.00105 2.39633 
3.08163 2.00883 2.00085 2.00346 2.55251 2.00485 2.00595 2.00075 2.00006 
2.29717 2.00822 3.5527 2.63222 2.00265 2.64479 2.00098 1.99992 2.00116 
1.99948 1.99962 1.99901 1.99871 1.99908 1.99944 1.99908 1.99962 1.9997 
2.47422 2.00515 2.72005 2.00062 1.99991 1.99954 1.99997 1.99998 1.99961 
1.99978 1.99772 1.99986 1.99939 1.99953 2 1.99993 1.99103 2.00556 
2.32878 2.00334 2.00223 1.99826 2.00282 2.13283 1.99955 2.00877 2.00557 
3.77692 
Cd 1 946 double
0.0116667 0.015 0.015 0.015 0.015 0.015 0.015 0.015 0.015 
0.015 0.015 0.015 0.015 0.015 0.015 0.015 0.015 0.015 
0.015 0.015 0.015 0.015 0.015 0.015 0.015 0.015 0.015 
0.015 0.015 0.015 0.015 0.015 0.015 0.015 0.015 0.015 
0.015 0.015 0.015 0.015 0.015 0.015 0.015 0.015 0.015 
0.015 0.015 0.015 0.015 0.015 0.015 0.015 0.015 0.015 
0.015 0.015 0.015 0.015 0.015 0.015 0.015 0.015 0.015 
0.015 0.015 0.015 0.015 0.015 0.015 0.015 0.015 0.015 
0.015 0.015 0.015 0.015 0.015 0.015 0.015 0.015 0.015 
0.015 0.015 0.015 0.015 0.015 0.015 0.015 0.015 0.015 
0.015 0.015 0.015 0.015 0.015 0.015 0.015 0.015 0.015 
0.015 0.015 0.015 0.015 0.015 0.015 0.015 0.015 0.015 
0.015 0.015 0.015 0.015 0.015 0.015 0.015 0.015 0.015 
0.015 0.015 0.015 0.015 0.015 0.015 0.015 0.015 0.015 
0.015 0.015 0.015 0.015 0.015 0.015 0.015 0.015 0.015 
0.015 0.015 0.015 0.015 0.015 0.015 0.015 0.015 0.015 
0.015 0.015 0.015 0.015 0.015 0.015 0.015 0.015 0.015 
0.015 0.015 0.015 0.015 0.015 0.015 0.015 0.015 0.015 
0.015 0.015 0.015 0.015 0.015 0.015 0.015 0.015 0.015 
0.015 0.015 0.015 0.015 0.015 0.015 0.015 0.015 0.015 
0.015 0.015 0.015 0.015 0.015 0.015 0.015 0.015 0.015 
0.015 0.015 0.015 0.015 0.015 0.015 0.015 0.015 0.015 
0.015 0.015 0.015 0.015 0.015 0.015 0.015 0.015 0.015 
0.015 0.015 0.015 0.015 0.015 0.015 0.015 0.015 0.015 
0.015 0.015 0.015 0.015 0.015 0.015 0.015 0.015 0.015 
0.015 0.015 0.015 0.015 0.015 0.015 0.015 0.015 0.015 
0.015 0.015 0.015 0.015 0.015 0.015 0.015 0.015 0.015 
0.015 0.015 0.015 0.015 0.015 0.015 0.015 0.015 0.015 
0.015 0.015 0.015 0.015 0.015 0.015 0.015 0.015 0.015 
0.015 0.015 0.015 0.015 0.015 0.015 0.015 0.015 0.015 
0.015 0.015 0.015 0.015 0.015 0.015 0.015 0.015 0.015 
0.015 0.015 0.015 0.015 0.015 0.015 0.015 0.015 0.015 
0.015 0.015 0.015 0.015 0.015 0.015 0.015 0.015 0.015 
0.015 0.015 0.015 0.015 0.015 0.015 0.015 0.015 0.015 
0.015 0.015 0.015 0.015 0.015 0.015 0.015 0.015 0.015 
0.015 0.015 0.015 0.015 0.015 0.015 0.015 0.015 0.015 
0.015 0.015 0.015 0.015 0.015 0.015 0.015 0.015 0.015 
0.015 0.015 0.015 0.015 0.015 0.015 0.015 0.015 0.015 
0.015 0.015 0.015 0.015 0.015 0.015 0.015 0.015 0.015 
0.015 0.015 0.015 0.015 0.015 0.015 0.015 0.015 0.015 
0.015 0.015 0.015 0.015 0.015 0.015 0.015 0.015 0.015 
0.015 0.015 0.015 0.015 0.015 0.015 0.015 0.015 0.015 
0.015 0.015 0.015 0.015 0.015 0.015 0.015 0.015 0.015 
0.015 0.015 0.015 0.015 0.015 0.015 0.015 0.015 0.015 
0.015 0.015 0.015 0.015 0.015 0.015 0.015 0.015 0.015 
0.015 0.015 0.015 0.015 0.015 0.015 0.015 0.015 0.015 
0.015 0.015 0.015 0.015 0.015 0.015 0.015 0.015 0.015 
0.015 0.015 0.015 0.015 0.015 0.015 0.015 0.015 0.015 
0.015 0.015 0.015 0.015 0.015 0.015 0.015 0.015 0.015 
0.015 0.015 0.015 0.015 0.015 0.015 0.015 0.015 0.015 
0.015 0.015 0.015 0.015 0.015 0.015 0.015 0.015 0.015 
0.015 0.015 0.015 0.015 0.015 0.015 0.015 0.015 0.015 
0.015 0.015 0.015 0.015 0.015 0.015 0.015 0.015 0.015 
0.015 0.015 0.015 0.015 0.015 0.015 0.015 0.015 0.015 
0.015 0.015 0.015 0.015 0.015 0.015 0.015 0.015 0.015 
0.015 0.015 0.015 0.015 0.015 0.015 0.015 0.015 0.015 
0.015 0.015 0.015 0.015 0.015 0.015 0.015 0.015 0.015 
0.015 0.015 0.015 0.015 0.015 0.015 0.015 0.015 0.015 
0.015 0.015 0.015 0.015 0.015 0.015 0.015 0.015 0.015 
0.015 0.015 0.015 0.015 0.015 0.015 0.015 0.015 0.015 
0.015 0.015 0.015 0.015 0.015 0.015 0.015 0.015 0.015 
0.015 0.015 0.015 0.015 0.015 0.015 0.015 0.015 0.015 
0.015 0.015 0.015 0.015 0.015 0.015 0.015 0.015 0.015 
0.015 0.015 0.015 0.0116667 0.015 0.015 0.015 0.015 0.015 
0.015 0.015 0.015 0.015 0.015 0.015 0.015 0.0128391 0.015 
0.015 0.015 0.015 0.015 0.015 0.015 0.015 0.015 0.015 
0.015 0.015 0.015 0.015 0.015 0.015 0.015 0.015 0.0144508 
0.0143688 0.0139688 0.015 0.015 0.0121671 0.0136883 0.015 0.0121716 0.015 
0.0122228 0.015 0.0137973 0.015 0.015 0.0141127 0.015 0.015 0.015 
0.015 0.015 0.015 0.015 0.015 0.015 0.015 0.015 0.015 
0.015 0.015 0.015 0.015 0.015 0.015 0.015 0.015 0.015 
0.015 0.0135097 0.015 0.015 0.015 0.015 0.015 0.015 0.015 
0.015 0.015 0.015 0.015 0.015 0.015 0.015 0.015 0.015 
0.015 0.015 0.015 0.015 0.015 0.015 0.015 0.015 0.015 
0.015 0.015 0.015 0.015 0.015 0.015 0.015 0.015 0.015 
0.015 0.015 0.015 0.015 0.015 0.015 0.015 0.015 0.015 
0.015 0.015 0.015 0.015 0.015 0.015 0.015 0.015 0.015 
0.015 0.015 0.015 0.015 0.015 0.015 0.015 0.015 0.015 
0.015 0.015 0.015 0.015 0.015 0.015 0.015 0.015 0.015 
0.015 0.015 0.015 0.015 0.015 0.015 0.015 0.015 0.015 
0.015 0.015 0.015 0.015 0.015 0.015 0.015 0.015 0.015 
0.015 0.015 0.015 0.015 0.015 0.015 0.015 0.015 0.015 
0.015 0.015 0.015 0.015 0.015 0.015 0.015 0.015 0.015 
0.0121298 0.015 0.015 0.015 0.015 0.015 0.015 0.015 0.015 
0.015 0.015 0.015 0.015 0.015 0.015 0.015 0.015 0.015 
0.015 0.015 0.015 0.015 0.015 0.015 0.015 0.015 0.015 
0.015 0.015 0.015 0.015 0.015 0.015 0.015 0.015 0.015 
0.015 0.015 0.015 0.015 0.015 0.015 0.015 0.015 0.015 
0.015 0.015 0.015 0.015 0.015 0.015 0.015 0.015 0.015 
0.015 0.015 0.015 0.015 0.015 0.015 0.015 0.015 0.015 
0.015 0.015 0.015 0.015 0.015 0.015 0.015 0.015 0.015 
0.015 0.015 0.015 0.015 0.015 0.015 0.015 0.015 0.015 
0.015 0.015 0.015 0.015 0.015 0.015 0.015 0.015 0.015 
0.015 0.015 0.015 0.015 0.015 0.015 0.015 0.015 0.015 
0.015 0.015 0.015 0.015 0.015 0.015 0.015 0.015 0.015 
0.015 0.015 0.015 0.015 0.015 0.015 0.015 0.015 0.015 
0.015 0.015 0.015 0.015 0.015 0.015 0.015 0.015 0.015 
0.015 0.015 0.015 0.015 0.015 0.015 0.015 0.015 0.015 
0.015 0.015 0.015 0.015 0.015 0.015 0.015 0.015 0.015 
0.015 0.015 0.015 0.015 0.015 0.015 0.015 0.015 0.015 
0.015 0.015 0.015 0.015 0.015 0.015 0.015 0.015 0.015 
0.015 0.015 0.015 0.015 0.015 0.015 0.015 0.015 0.015 
0.015 0.015 0.015 0.015 0.015 0.015 0.015 0.015 0.015 
0.015 0.015 0.015 0.015 0.015 0.015 0.015 0.015 0.015 
0.015 0.015 0.015 0.015 0.015 0.015 0.015 0.015 0.015 
0.015 
Bed%20Shear%20Stress 1 946 double
0 0 0 0 0 0 0 0 0.113131 
0.0480208 0 0.00588789 0.0292702 0 0 0 0 0 
0 0 0.0100662 0 0.00562238 0.00298709 0.0235703 0.0317418 0.00811063 
0 0 0.0200321 0.0434652 0.0257086 0.0420904 0 0 0 
0 0 0 0 0 0.0263478 0.0229773 0.00986753 0 
0.0515481 0.04769 0 0.380248 0.243338 0.320425 0.0680259 0.173746 0 
0 0 0 0 0 0 0 0 0 
0.0241321 0 0.0451999 0.0422404 0.0379717 0.0320961 0.0481198 0.0159858 0.050095 
0.0317539 0.0850204 0.0410403 0.0147112 0.0133597 0.00504624 0.00578438 0.00989906 0.072491 
0.00728844 0.00171036 0 0 0 0 0 0 0 
0 0 0 0 0 0.020629 0.0125494 0.0029698 0.00415113 
0 0.00448047 0.004868 0.0160893 0.00485363 0.00284324 0.0117005 0.0294776 0.150898 
0.176072 0 0 0 0 0 0 0.00640835 0.00253473 
0 0 0 0 0.0139585 0 0 0 0 
0.00341225 0 0.0218235 0.0036814 0.006701 0.00704748 0.0147974 0.00235632 0.00557589 
0.0165158 0 0 0 0 0 0.0151459 0.000353927 0.00196045 
0.00424622 0.0361495 0.0032242 0.00462584 0.0453647 0.00473668 0.0162657 0.00805151 0.00683757 
0.00815378 0.0074349 0.0031282 0.00231371 0.00579726 0.0067051 0.00315065 0.0177099 0.0160587 
0.00168421 0.0123811 0.00451682 0.0140709 0 0.0343101 0.052852 0.0118091 0.00620493 
0.0171895 0.0103298 0 0.0066676 0.00482705 0 0 0 0 
0.015565 0.0298489 0.0188104 0.00976545 0.289686 0.35976 0.247305 0 0 
0 0 0 0 0 0 0 0 0 
0 0 0.15457 0.0328588 0.149997 0.0279804 0.282616 0.0283819 0.0806096 
0.0309609 0.0429324 0.0732145 0.0298626 0.0447374 0.0352339 0.0709104 0.0872397 0.0567909 
0.0226647 0.0662272 0.0805955 0.0565173 0 0 0.176388 0.226913 0.0131252 
0.0063083 0.0128477 0.00777177 0.0243609 0.0189485 0.0227144 0.0177004 0.0303086 0.0256818 
0.0222886 0.048506 0 0.0304033 0.031256 0.0448071 0.0634932 0.0781093 0.0517372 
0.0971315 0.0628067 0.0725669 0 0.0803298 0.0661943 0.0722759 0.0661377 0.0209544 
0.0723797 0.044868 0.0638341 0 0.0297526 0.0315643 0.0380863 0.0389262 0 
0.090785 0 0 0 0.0427895 0.0795108 0.0832388 0 0.0347361 
0.0322464 0.0672281 0.0644665 0.0535687 0.0485902 0.0518988 0.0427839 0.0539204 0.0456331 
0.0364736 0.0580309 0.0531923 0.0630864 0.0538829 0.060367 0.0760304 0.0602786 0.0487311 
0.0825776 0.0496804 0.082016 0.0612398 0.0621787 0.0447696 0.0820282 0.116369 0.122518 
0.0985843 0.129732 0.090316 0.118644 0.115146 0.155346 0.0914106 0.109663 0.0928384 
0.131772 0.137359 0.117161 0.174557 0.0828438 0.0643275 0.0906764 0.0712135 0.0496662 
0.0429617 0.122069 0.144124 0.139795 0.0994577 0.092183 0.117352 0.111756 0.108423 
0.142678 0.0158768 0.0504901 0.0443181 0.0306567 0.0191585 0.0903649 0.0345927 0.0194562 
0.042656 0.0689303 0.0182394 0.00161325 0.00639465 0.00695732 0.00187315 0.0043264 0.00272622 
0.00213168 0.00900838 0.123548 0.0708469 0.0976726 0.0733102 0.0586869 0.0770226 0.0625923 
0.0818391 0.00248246 0.0038479 0.00152815 0.00465113 0.00251275 0 0.00827886 0.0876541 
0.000458317 0.029515 0.054926 0 0 0 0.00250442 0.00362654 0.0708218 
0.0649528 0.0917648 0.121791 0.110381 0.0621242 0.115527 0 0.00510146 0.00413706 
0.00156826 0.0478558 0.0933006 0.0861701 0.0970501 0.109608 0 0 0 
0 0.00779022 0.00505062 0.00116376 0.0481229 0.0178194 0.104592 0.0770977 0.0978638 
0.0227304 0 0.00600608 0.00355883 0.0189333 0.00163427 0 0.0742408 0.0144496 
0.0302016 0.108256 0.060021 0.0460598 0.0322291 0.187145 0.0517612 0.0767011 0.0255053 
0.0952811 0.0552145 0.163083 0.151295 0.104919 0.0935075 0.00426422 0 0.00187381 
0 0 0.0125169 0 0.528297 0.343574 0.102628 0.0178417 0.55671 
0.160783 0.0696335 0.0244306 0.2282 0.268596 0.042175 0.0287998 0.0732362 0.0369348 
0.122091 0.19761 0.0485705 0 0.0907163 0.104793 0.0876655 0.0985479 0.0736024 
0 0 0 0 0 0 0 0 0 
0.39982 0 0 0.00608193 0 0 0 0.0196276 0 
0 0.0574748 0.0794706 0.100568 0.169204 0.185556 0.211739 0.179386 0.205227 
0.196531 0.152362 0.174088 0.132322 0.173588 0.150481 0.12695 0.138476 0.19226 
0.14897 0.179071 0.159497 0.142934 0.209563 0 0.0835788 0.00249217 0.0749531 
0.00519455 0.00577532 0.181558 0.11159 0.134102 0.114596 0.119956 0.209424 0.308776 
0.130676 0.327988 0.259538 0.0113516 0 0 0.098929 0.0517504 0 
0.0782424 0.0946859 0 0.176459 0.00654451 0.0206375 0 0 0 
0.0628767 0.122223 0.167555 0.2064 0.32761 0.396394 0 0.0967213 0 
0 0 0 0 0.110927 0.0476753 0.0478752 0.0427463 0.017197 
0 0.0238527 0.0285717 0.0279573 0.00604173 0.14803 0.0246446 0.146559 0.0387026 
0.202797 0.145659 0.130225 0 0.0492409 0.16927 0.0481105 0.0538776 0.117334 
0.181484 0.094319 0.132265 0.0281882 0.0733582 0.095925 0.0538836 0 0.094928 
0.0312572 0.136176 0.0128842 0 0.0102495 0.0112555 0 0.00552343 0 
0.023161 0 0 0 0 0 0 0 0.138333 
0 0.164162 0.0670249 0.184614 0 0.107224 0.168883 0.167224 0 
0.161766 0 0.00626511 0.197582 0.037452 0 0 0.22788 0 
0 0 0.128981 0.049369 0 0 0.106029 0 0 
0 0 0 0.0263303 0.0377813 0 0.180239 0.16194 0.158878 
0.133993 0.0823347 0.0258347 0.198288 0 0.147756 0.213328 0.133211 0.180309 
0.159634 0.192556 0.148603 0.13773 0.216373 0.205019 0.147737 0.151081 0.0931384 
0.14388 0 0.160294 0.162016 0.167285 0 0.193167 0.217633 0.257508 
0 0 0 0 0.122768 0.0780373 0.151238 0.0146654 0.0184183 
0.133432 0.162158 0.175779 0.0633904 0.0998996 0.101172 0.16593 0.133794 0.171631 
0.111019 0.203445 0.110432 0.0990153 0.0899347 0.0190904 0.16194 0.120999 0.115042 
0.119095 0.105217 0.108919 0.109917 0 0 0 0 0 
0 0 0.157047 0.159243 0.119605 0.0965814 0.142412 0.0963817 0.100153 
0.111156 0.0990907 0.16432 0.141628 0.100355 0.158615 0.133503 0.132352 0.117167 
0.0466378 0.118716 0.142452 0.026743 0.129585 0.150144 0.150957 0.129247 0.141996 
0.156106 0.152461 0.14292 0.0603109 0.0614843 0.0559062 0.0668313 0.0592373 0.0526442 
0.0411253 0.0465413 0.050413 0.0406227 0.0443175 0.0523521 0.0332978 0.024427 0.0801967 
0 0 0.092314 0.00649044 0.104203 0.133662 0.0469171 0 0 
0.128458 0 0 0.0875145 0.0502533 0 0 0.00929878 0.215074 
0 0.175113 0.141777 0.159133 0.0295333 0.137057 0.187556 0.128298 0.194221 
0.0171164 0.246681 0.0725504 0.128311 0 0 0.0521875 0.0809368 0.035405 
0.227256 0 0 0 0.0183377 0.232478 0.146383 0 0.201958 
0.0702527 0 0 0 0.178573 0.235269 0.220488 0.228451 0.246905 
0.0441811 0 0 0 0.178253 0.192302 0.220879 0.240272 0.223445 
0.222273 0.13847 0.201923 0.242453 0.0940995 0 0.0424148 0.222444 0.185092 
0.109815 0.229871 0 0.23327 0.223417 0.12677 0.181278 0.153995 0.201419 
0.214203 0.173552 0.207746 0.155438 0.233381 0.0161843 0.0698191 0.0841785 0.0752824 
0.0907604 0.0428492 0.126936 0.155562 0 0.21386 0.0236576 0 0 
0.243645 0 0 0 0.139608 0.209699 0.200592 0.147659 0 
0 0.0225088 0 0.178317 0 0.597692 0 0 0.108317 
0 0.0456815 0 0.0789246 0.134639 0.139866 0.0552838 0.111014 0.0367803 
0.0328781 0.213639 0.113263 0.0446271 0.180483 0.021026 0.109741 0.118044 0.174289 
0.0680379 0.526068 0.207931 0.192818 0.215703 0.200722 0.197045 0.18066 0.0599177 
0.10031 0.163233 0.142822 0.139405 0.116531 0.118339 0.126588 0.160818 0 
0.0040807 0 0 0 0.00665539 0 0.00382831 0.0313866 0 
0 0.0043679 0.0134473 0.00715324 0 0.00395979 0.00503857 0.0615989 0.0217166 
0 0.0374536 0 0 0.199695 0 0.238039 0.178794 0.429199 
0.255489 0.240569 0.224988 0.230861 0.253192 0.236424 0.235511 0.224742 0.200832 
0 0.265982 0 0.226945 0.198913 0.145737 0.209092 0.1919 0.218791 
0.204776 0.0531615 0.114639 0.132471 0.124864 0.159158 0.176232 0.339617 0.126162 
0 0.0312653 0.0362301 0.0599918 0.197967 0 0.247215 0.209568 0.0760501 
0 
Divergence%20of%20Bed%20Shear%20Stress 1 946 double
0 0 0 0 0 0 0 0 0.0184656 
0.00204383 0 0.00108308 0.0362348 0 0 0 0 0 
0 0 -0.00148802 0 2.80863e-005 -0.00223254 -0.00416102 0.00141147 -0.00182792 
0 0 -0.00270121 0.00950295 -0.00098021 0.00598055 0 0 0 
0 0 0 0 0 0.0118794 -0.00562642 0.0141412 0 
0.00116116 -0.00766006 0 -0.251634 0.202479 -0.0776241 0.0574049 0.023536 0 
0 0 0 0 0 0 0 0 0 
0.00668551 0 -0.000448038 -0.00285552 0.00256287 0.0082815 0.00828326 0.00314919 -0.00201219 
-0.00699102 0.133027 -0.000509928 -0.00313527 0.000612011 -0.00472231 -0.00377765 -0.013952 -0.131219 
-0.00229272 -0.000979749 0 0 0 0 0 0 0 
0 0 0 0 0 -0.00198281 0.00540713 -0.00121344 -0.000422373 
-0.0199916 0.00524616 0.000216039 -0.0351613 -0.00197722 0.000514311 0.00355629 0.0128883 -0.0459928 
0.113406 0 0 0 0 0 0 -0.000150698 -0.0037355 
0 0 0 0 6.13999e-005 0 0 0 0 
0.000901585 0 -0.00181006 -0.000640684 -0.00663071 0.00173936 -0.0127591 0.00239609 0.000214895 
-0.0040596 0 0 -0.00927407 0 0 -0.0246798 0.000718524 -0.000323631 
0.000641396 6.94471e-005 -0.00263747 0.0070878 -0.0177819 -0.00274266 0.000872728 -0.00160248 0.00134623 
-0.00105235 -0.00299272 -0.00104603 -0.00146412 0.00136883 0.00165762 -0.000144991 0.00208458 0.00250629 
-0.000487799 -0.00606745 -0.0033753 -0.00632947 0 0.0442745 0.0464436 -0.00115289 0.00322646 
0.00717963 0.0077277 0 0.000610747 -0.00750477 0 0 0 0 
-0.00530713 -0.0107974 0.0534453 0.0071335 -0.127492 -0.255426 0.157962 0 0 
0 0 0 0 0 0 0 0 0 
0 0 0.0138864 -0.00422459 -0.0049472 -0.00706045 -0.236528 0.00407293 -0.0347145 
-0.0080404 -0.0222347 -0.00759118 0.0172567 -0.00378858 -0.00100516 0.000168981 -0.01808 -0.000572571 
-0.012795 0.00395478 -0.00161808 0.00375004 0 0 -0.036078 -0.115551 -0.000634012 
0.00107739 0.00026712 -0.00045793 -0.00455598 -0.0026593 0.000172965 -0.00239302 -0.0023981 0.00568413 
-0.00522497 -0.0156583 0 -0.00514472 0.0214307 0.00576606 3.78944e-005 -0.00357005 -0.00155315 
0.0125581 0.00923242 0.00103449 0 0.00830769 -0.000402925 -0.0011373 0.00497737 0.0111118 
0.00613036 -0.0407981 0.00101361 0 -0.00176741 0.0142133 -0.0746686 0.0147168 0 
0.072707 0 0 0 0.0039454 0.00806284 0.0054603 0 -0.00140512 
-0.00102759 -0.00223472 0.00515513 0.00675965 0.00151609 0.00511244 0.00460782 -0.00339848 -0.0013601 
-0.00171846 -0.00275894 -0.00427343 0.000905866 0.00335434 0.00536619 0.00730237 -0.00354685 -0.00490249 
0.00210797 0.0246999 0.0317568 0.0126622 0.00478557 0.026524 0.0427074 0.0312338 0.00636229 
-0.00116621 0.0028757 0.00645198 0.0137174 0.00849981 0.0106133 0.00845438 0.00958521 0.00916087 
0.0259236 0.00507783 0.0130182 0.0331019 -0.0638625 0.00795693 0.00661281 0.00246082 -0.040981 
0.00382868 0.0198935 0.00895304 0.00311597 -0.000183039 0.00925319 0.00487097 0.00731929 0.0038013 
0.00665195 -0.0127016 -0.0166478 -6.67285e-005 0.00288993 -0.00141684 -0.0155885 -0.00228358 -6.18913e-005 
-0.00366339 -0.00307356 -0.00360758 -0.000593757 -0.00163081 -0.00169359 0.000184826 -0.00142152 0.00183056 
-0.000264922 0.000205663 -0.00434868 -0.000888339 -0.00376684 -0.0168043 -0.00734533 -0.0233796 -0.0213232 
-0.0224376 -0.000716555 -0.00109183 0.000178018 0.00179022 -0.000355073 0 0.0186384 -0.00459352 
-8.66461e-005 0.000984766 -0.242536 0 0 0 0.00016834 -0.00198023 -0.00236413 
-0.00537563 -0.00389536 -0.0103529 -0.00728442 -0.0150315 -0.00733642 0 -0.000480314 -0.00179039 
0.000752145 -0.010623 -0.00445682 0.00102938 -0.0272772 -0.0173214 0 0 0 
0 -0.000751854 0.00188815 0.00178928 -0.00410453 -0.0057815 -0.00572961 -0.00106226 -0.015244 
-0.00267409 0 0.00550039 0.0015084 -0.00665414 -8.81385e-005 0 -0.00522529 -0.00469804 
-0.00611551 -0.00682039 -0.02367 -0.0147082 -0.0111943 -0.0180636 0.0231515 -0.0127389 0.0109847 
0.0386849 -0.0159621 0.0247565 0.0469202 0.00834454 -0.00594599 0.000453043 0 0.00181928 
0 0 -0.00687801 0 0.222332 -0.365177 -0.0204855 -0.00571188 -0.341265 
-0.0206509 -0.0202666 0.01605 -0.0120094 0.111825 -0.0161486 0.002215 0.061043 0.0606504 
0.0286453 -0.0166198 -0.0226619 0 -0.00699216 0.00276625 -0.00120639 -0.00488 -0.0137327 
0 0 0 0 0 0 0 0 0 
-0.298058 0 0 -0.00492319 0 0 0 0.0127638 0 
0 0.0266912 0.00938853 -0.00835918 -0.00926249 -0.00657242 0.0014125 1.79959e-005 0.00373882 
-0.000317091 -0.00475738 -0.00456452 -0.00805826 8.5295e-006 -0.00656291 -0.00390329 -0.00109547 -0.00057151 
-0.0153832 -0.02463 -4.78781e-005 0.000750524 0.00205618 0 0.0189267 -0.00123659 -0.0212259 
0.00157254 -0.00841812 -0.11703 -0.0552201 -0.00612771 -0.00519959 -0.0123586 -0.0591786 0.162854 
-0.0123466 -0.267864 0.107261 0.00868098 0 0 -0.161949 0.00292454 0 
0.00519794 0.000430993 0 0.0308646 -0.195393 -0.0150096 0 0 0 
-0.00473044 0.00289319 -0.0720561 -0.0156769 -0.228239 0.0584776 0 0.0090602 0 
0 0 0 0 -0.00915426 0.0319601 -0.0180481 0.0923984 -0.0133856 
0 0.000814931 0.027018 -0.00285168 0.00413985 -0.00770551 0.0266652 -0.00991507 -0.002366 
-0.00213371 -0.0207048 0.0152529 0 -0.0078216 -0.00479764 -0.0127029 -0.000586234 -0.000548644 
0.00523542 -0.0172 -0.00448017 -0.00142519 -0.00325263 -0.00689315 -0.00736982 0 -0.0929011 
-0.119694 -0.00656913 0.00530543 0 -0.0324751 -0.000615212 0 0.00293892 0 
0.0458419 0 0 0 0 0 0 0 0.143962 
0 -0.000161494 0.0108018 0.00965718 0 -0.00192598 0.00962011 0.00981984 0 
-0.000646228 0 -0.00725703 -0.0373332 0.112346 0 0 -0.0868174 0 
0 0 0.0116758 -0.118981 0 0 0.0461271 0 0 
0 0 0 0.00786046 0.0208528 0 0.000620326 -0.00160119 6.57184e-005 
0.0197527 0.00637413 -0.00994962 0.00883503 0 0.0107442 0.0130538 0.0104891 0.0134861 
0.015227 0.0116739 0.0126438 0.0130881 0.00485453 0.0108891 -0.00576851 -0.293506 -0.0017839 
0.00997201 0 -0.00171075 -0.00592449 0.002919 0 -0.0191364 0.185442 -0.107315 
0 0 0 0 -0.00713915 -0.00935284 0.00243084 0.00516652 -0.00527815 
-0.00552783 0.0101601 0.00147652 -0.182457 0.0253369 0.0434184 0.0377967 0.0538902 -0.025843 
0.00852651 -0.0434775 0.023147 0.0149913 -0.0228538 -0.00401933 0.00949597 0.00378501 0.00016574 
0.00488036 0.00527747 0.00673316 0.00641063 0 0 0 0 0 
0 0 -0.000341526 -0.00063284 -0.00869105 0.00677238 0.0195156 0.00456182 0.00508613 
0.00975076 0.0199197 0.000652418 0.0532624 0.0156424 0.0050884 0.00676883 0.000958806 -0.005709 
-0.00225689 0.00701384 0.0038124 -0.00521842 0.00577947 0.00554149 0.00112477 0.00558847 0.00561399 
0.00426051 0.00266084 -0.00324705 0.0109568 0.00514689 0.0100838 0.00486416 0.0168946 0.0207519 
0.00751786 0.0150847 0.0087855 0.00797934 -0.00647002 0.00213175 0.0131455 -0.00458934 -0.00226692 
0 0 0.00447604 -0.00973655 0.00620249 0.00797557 -0.0134075 0 0 
0.011678 0 0 -0.00132532 -0.0169054 0 0 -0.0124575 -0.0113639 
0 0.00931048 0.00797714 0.0108733 -0.00509888 0.0196 0.00932081 -0.0067849 0.00488024 
-0.00102655 0.0020903 -0.000399554 0.0116658 0 0 0.00316917 0.00294676 0.00534446 
0.00258821 0 0 0 0.00287203 0.00833491 -0.00736 0 0.00702967 
-0.0188746 0 0 0 0.00283317 -0.00209313 -0.00660329 -0.00297151 -0.00342224 
-0.0062155 0 0 0 -0.0158763 -0.017212 -0.000680534 -0.00664706 -0.008985 
-0.0165746 0.00204548 0.00033445 -0.00254111 -0.0199713 0 0.00790066 0.00356736 -0.00786404 
-0.0088945 0.00498856 0 0.00379212 -0.00771372 -0.0145108 -0.00246539 0.000279937 0.000298054 
0.00182222 0.00405829 0.00238217 0.0034807 -0.000907148 0.00789696 0.00728835 0.0830353 -0.000580752 
0.0274326 0.0369553 -0.0715998 -0.0433759 0 0.017178 0.0217906 0 0 
-0.135654 0 0 0 0.0108628 -0.335058 0.017986 0.00245434 0 
0 -0.00180276 0 0.235883 0 0.127676 0 0 -0.185562 
0 -0.0811667 0 0.0137745 -0.255572 -0.0185914 0.0154978 0.00664129 -0.220355 
-0.00015985 -0.061643 0.0163352 -0.00324535 -0.0197411 -0.0174253 -0.141223 -0.0196469 -0.012515 
-0.0172013 -0.295274 0.00820283 0.00710251 0.00198301 -0.0050249 -0.000199245 -0.00763348 -0.00471293 
-0.0259509 -0.00227468 0.00561642 0.00804367 0.00572532 0.00366961 -0.01042 -0.00108812 0 
-0.00306526 0 0 0 -0.00614753 0 0.00126229 -0.0089145 0 
0 -0.00170083 0.00392123 -0.00615661 0 -0.00132013 -0.000207363 -0.0146718 -0.00676998 
0 -0.00406607 0 0 0.00797641 0 0.00528313 -0.000461138 -0.72408 
-0.00042006 0.0142255 -0.00350255 -0.00804197 -0.00696125 -0.00447759 -0.011631 -0.0140086 -0.020934 
0 0.0122104 0 0.00701094 -0.00239723 0.00174055 -0.00530486 0.00974899 0.0014412 
0.00118497 -0.00234037 0.016848 -0.0032977 -0.00337509 2.43169e-006 0.000766337 -0.797876 -0.379925 
0 -0.0578586 0.0354201 0.0095723 -0.182443 0 0.00296618 -0.138738 -0.00448651 
0 
Shields%20Diameter%20(mm) 1 946 double
0 0 0 0 0 0 0 0 0.0682737 
0 0 0 0 0 0 0 0 0 
0 0 0 0 0 0 0 0 0 
0 0 0 0 0 0 0 0 0 
0 0 0 0 0 0 0 0 0 
0 0 0 0.782688 0.476235 0.661255 0 0.255207 0 
0 0 0 0 0 0 0 0 0 
0 0 0 0 0 0 0 0 0 
0 0 0 0 0 0 0 0 0 
0 0 0 0 0 0 0 0 0 
0 0 0 0 0 0 0 0 0 
0 0 0 0 0 0 0 0 0.169642 
0.263799 0 0 0 0 0 0 0 0 
0 0 0 0 0 0 0 0 0 
0 0 0 0 0 0 0 0 0 
0 0 0 0 0 0 0 0 0 
0 0 0 0 0 0 0 0 0 
0 0 0 0 0 0 0 0 0 
0 0 0 0 0 0 0 0 0 
0 0 0 0 0 0 0 0 0 
0 0 0 0 0.592377 0.742666 0.486906 0 0 
0 0 0 0 0 0 0 0 0 
0 0 0.183122 0 0.16639 0 0.575729 0 0 
0 0 0 0 0 0 0 0 0 
0 0 0 0 0 0 0.264962 0.430229 0 
0 0 0 0 0 0 0 0 0 
0 0 0 0 0 0 0 0 0 
0 0 0 0 0 0 0 0 0 
0 0 0 0 0 0 0 0 0 
0 0 0 0 0 0 0 0 0 
0 0 0 0 0 0 0 0 0 
0 0 0 0 0 0 0 0 0 
0 0 0 0 0 0 0 0.0738861 0.0859885 
0 0.1029 0 0.0781333 0.0717085 0.186007 0 0.0627818 0 
0.10825 0.124196 0.0753355 0.25821 0 0 0 0 0 
0 0.0850373 0.145873 0.131723 0 0 0.07569 0.0660346 0 
0.141041 0 0 0 0 0 0 0 0 
0 0 0 0 0 0 0 0 0 
0 0 0.0882175 0 0 0 0 0 0 
0 0 0 0 0 0 0 0 0 
0 0 0 0 0 0 0 0 0 
0 0 0.0844513 0.063877 0 0.0723794 0 0 0 
0 0 0 0 0 0.0626984 0 0 0 
0 0 0 0 0 0 0 0 0 
0 0 0 0 0 0 0 0 0 
0 0 0 0 0 0.303597 0 0 0 
0 0 0.215134 0.171085 0 0 0 0 0 
0 0 0 0 1.03943 0.709957 0 0 1.08403 
0.206434 0 0 0.433946 0.541678 0 0 0 0 
0.0850833 0.339156 0 0 0 0 0 0 0 
0 0 0 0 0 0 0 0 0 
0.819646 0 0 0 0 0 0 0 0 
0 0 0 0 0.238244 0.298008 0.384739 0.275913 0.364204 
0.335612 0.174979 0.256474 0.109735 0.25462 0.168136 0.096011 0.127608 0.321345 
0.162711 0.274769 0.20158 0.14189 0.377948 0 0 0 0 
0 0 0.283761 0.0657695 0.114671 0.0707513 0.0807026 0.377513 0.635771 
0.105343 0.677436 0.518864 0 0 0 0 0 0 
0 0 0 0.265223 0 0 0 0 0 
0 0.0853619 0.232035 0.367952 0.676634 0.81326 0 0 0 
0 0 0 0 0.0647241 0 0 0 0 
0 0 0 0 0 0.159375 0 0.154215 0 
0.356374 0.151103 0.104169 0 0 0.23849 0 0 0.0756548 
0.283496 0 0.109579 0 0 0 0 0 0 
0 0.120664 0 0 0 0 0 0 0 
0 0 0 0 0 0 0 0 0.127165 
0 0.219218 0 0.294677 0 0 0.237037 0.230789 0 
0.21015 0 0 0.339063 0 0 0 0.433025 0 
0 0 0.100994 0 0 0 0 0 0 
0 0 0 0 0 0 0.279004 0.210811 0.199243 
0.114363 0 0 0.341372 0 0.158407 0.389652 0.112178 0.279257 
0.202095 0.322345 0.161402 0.125321 0.398967 0.363537 0.158339 0.170309 0 
0.14505 0 0.204586 0.211098 0.231019 0 0.324406 0.402783 0.513655 
0 0 0 0 0.0865237 0 0.170877 0 0 
0.11279 0.211634 0.26272 0 0 0 0.225903 0.113804 0.247334 
0.0648677 0.358472 0.0639554 0 0 0 0.210811 0.0828116 0.0715263 
0.0790067 0 0 0.0631658 0 0 0 0 0 
0 0 0.192363 0.20062 0.0800071 0 0.140164 0 0 
0.0650831 0 0.219814 0.137599 0 0.198255 0.11299 0.109816 0.0753465 
0 0.0782712 0.140295 0 0.102522 0.166919 0.169858 0.101665 0.138798 
0.18884 0.175344 0.141843 0 0 0 0 0 0 
0 0 0 0 0 0 0 0 0 
0 0 0 0 0 0.113434 0 0 0 
0.0996868 0 0 0 0 0 0 0 0.395011 
0 0.260264 0.138084 0.200206 0 0.123288 0.305036 0.0992903 0.327942 
0 0.485238 0 0.0993225 0 0 0 0 0 
0.431222 0 0 0 0 0.446162 0.153605 0 0.353647 
0 0 0 0 0.272956 0.454018 0.411348 0.434669 0.485838 
0 0 0 0 0.271789 0.321488 0.412511 0.467877 0.420103 
0.416647 0.127588 0.353535 0.473831 0 0 0 0.417154 0.296371 
0.0630107 0.438745 0 0.4484 0.420022 0.0955823 0.282752 0.18099 0.351892 
0.392342 0.254486 0.372225 0.186349 0.448714 0 0 0 0 
0 0 0.0959788 0.186811 0 0.39129 0 0 0 
0.477067 0 0 0 0.131134 0.378376 0.349188 0.158066 0 
0 0 0 0.272024 0 1.14642 0 0 0 
0 0 0 0 0.116197 0.131946 0 0.0648604 0 
0 0.390611 0.0684928 0 0.279885 0 0.0628988 0.0769875 0.25722 
0 1.03589 0.37281 0.323229 0.39693 0.349613 0.337303 0.280523 0 
0 0.215703 0.141518 0.130496 0.0741805 0.0775476 0.0951496 0.206567 0 
0 0 0 0 0 0 0 0 0 
0 0 0 0 0 0 0 0 0 
0 0 0 0 0.346239 0 0.461724 0.273762 0.873094 
0.508438 0.468689 0.424628 0.441572 0.502459 0.457242 0.454693 0.423907 0.349973 
0 0.535163 0 0.430321 0.343408 0.151373 0.376469 0.320126 0.40627 
0.36276 0 0.0708264 0.110142 0.0911508 0.200298 0.264389 0.7018 0.0941456 
0 0 0 0 0.340325 0 0.486667 0.377965 0 
0 
Velocity%20(magnitude) 1 946 double
0 0 0 0 0 0 0 0 0.224841 
0.147221 0 0 0.0713636 0 0 0 0 0 
0 0 0.050987 0 0.0434431 0 0.0952707 0.116802 0.0346352 
0 0 0.00743094 0.141968 0.10606 0.136376 0 0 0 
0 0 0 0 0 0.0590435 0.0951897 0.0251409 0 
0.15264 0.1461 0 0.232506 0 0 0.11744 0 0 
0 0 0 0 0 0 0 0 0 
0.100915 0 0.142332 0.138427 0.128912 0.11909 0.14709 0.0840553 0.150419 
0.116908 0.153732 0.135662 0.0335835 0 0 0 0.0234719 0.12675 
0 0.0123694 0 0 0 0 0 0 0 
0 0 0 0 0 0.0840766 0.0618195 0 0.0171973 
0 0.0232052 0.0204187 0 0.0236608 0.0321249 0.0724129 0.105316 0.252945 
0 0 0 0 0 0 0 0.00984823 0 
0 0 0 0 0 0 0 0 0 
0.0388777 0 0.0132258 0.0378114 0.0266879 0.0231435 0.0472583 0.0202206 0.0498865 
0 0 0 0 0 0 0 0.00935096 0.0220874 
0.0429267 0.126463 0.0228958 0.013899 0.119475 0.0429681 0.0838788 0.0537305 0.0545243 
0.0384105 0.055772 0.0369499 0.0270477 0.0461018 0.0529468 0.037491 0.0887989 0.0837005 
0.0249058 0.0664796 0.0420518 0.0656542 0 0.0670047 0.0794219 0.0540433 0.0426991 
0.0427112 0.061142 0 0.0241276 0 0 0 0 0 
0.0815361 0.110847 0.0789286 0.056921 0 0.157194 0 0 0 
0 0 0 0 0 0 0 0 0 
0 0 0.183031 0.117832 0.126794 0.0147474 0.179045 0.0875653 0.135422 
0.111999 0.0982466 0.181765 0.0679494 0.141875 0.111425 0.175859 0.196334 0.133572 
0.0751006 0.173259 0.190684 0.159728 0 0 0 0.197489 0.076569 
0.051868 0.0741803 0.0574162 0.104672 0.0925374 0.101413 0.0900972 0.121726 0.108969 
0.101595 0.148084 0 0.115061 0.0456036 0.129395 0.166678 0.187953 0.147292 
0.209307 0.163615 0.181415 0 0.189995 0.172679 0.181066 0.172116 0 
0.180808 0.0410072 0.164119 0 0.0875836 0 0.0625636 0 0 
0.112503 0 0 0 0 0.18952 0.192725 0 0.124625 
0.128995 0.173327 0.170594 0.155531 0.148163 0.152889 0.13842 0.155567 0.142677 
0.124739 0.161269 0.15413 0.167594 0.155998 0.165144 0.185158 0.164692 0.148329 
0.191198 0.150608 0.190415 0.165606 0.167749 0.144774 0.191336 0.227462 0.234782 
0.21023 0.241484 0.200997 0.231286 0.227366 0.2652 0.202403 0.222357 0.203983 
0.241725 0.24888 0.228272 0 0.0586069 0.0946769 0.191621 0.177822 0.0229031 
0.097708 0 0.253526 0.250369 0.206247 0.203803 0.230685 0.22511 0.221866 
0.253442 0 0.161553 0.139987 0.116171 0.0913009 0.201871 0.124059 0.0922621 
0.136939 0.175422 0.0876418 0.0242512 0.0502013 0.054299 0.0231283 0.0408429 0.031901 
0.0289282 0.0615854 0.236477 0.17897 0.210294 0.18287 0.161711 0.194063 0.17343 
0.194356 0.0294739 0.0314941 0.0225075 0.0428061 0.0332163 0 0.0502221 0.199179 
0.00796353 0.0932176 0.0864064 0 0 0 0.0325168 0.036226 0.178957 
0.170647 0.203782 0.234894 0.223758 0.161121 0.227854 0 0 0.0377654 
0.0250707 0.145961 0.205207 0.157683 0.213177 0.222216 0 0 0 
0 0.0438368 0.0310612 0.00902048 0.145885 0.0853049 0.217138 0.157719 0.209671 
0.0953783 0 0.0298034 0.0186711 0.0798098 0.0229082 0 0.183242 0.0791956 
0.116209 0.22137 0.170373 0.132878 0.1214 0.263543 0.148218 0.162633 0.11389 
0.207014 0.135821 0.131639 0.107152 0.206413 0.197818 0.0350901 0 0.0151296 
0 0 0.0691151 0 0 0.196951 0.201716 0 0.256309 
0.256683 0.171511 0.04076 0.311978 0.246864 0.134596 0.0772254 0.0992094 0.0962715 
0.0149712 0.274658 0.0941031 0 0.20095 0.217286 0.198561 0.211144 0.181757 
0 0 0 0 0 0 0 0 0 
0 0 0 0 0 0 0 0.0617838 0 
0 0 0.0852934 0.167295 0.265796 0.289513 0.30904 0.285107 0.304793 
0.298543 0.262835 0.280993 0.244988 0.280471 0.260845 0.239827 0.25033 0.295195 
0.259119 0.272506 0.269061 0.254553 0.306979 0 0 0.018849 0.18301 
0.0245722 0.0297568 0.212687 0.0978955 0.246811 0.227744 0.233536 0 0 
0.239777 0.19985 0 0.0596607 0 0 0.143635 0.14294 0 
0.18785 0.204137 0 0.277711 0 0.0645945 0 0 0 
0.157149 0.235616 0.120207 0.303191 0.115201 0 0 0.232109 0 
0 0 0 0 0.219412 0 0.126375 0.0617334 0 
0 0.0582026 0.077288 0.096277 0.016118 0.255913 0.0405687 0.257523 0.12283 
0.30304 0.233946 0.241743 0 0.138015 0.276872 0.134535 0.125732 0.224819 
0.28591 0.200142 0.24418 0.107033 0.179568 0.206922 0.145619 0 0 
0.0642484 0.247001 0.0471219 0 0.0459945 0.052115 0 0.0131974 0 
0.0514194 0 0 0 0 0 0 0 0 
0 0.272992 0.160554 0.288626 0 0.214842 0.276154 0.274747 0 
0.271073 0 0 0.0977193 0.0520135 0 0 0 0 
0 0 0 0.126119 0 0 0.232567 0 0 
0 0 0 0.0786128 0 0 0.285804 0.271125 0.268609 
0.24107 0.189915 0.0802726 0.299476 0 0.258145 0.310829 0.245047 0.285238 
0.268615 0.294978 0.259583 0.249661 0.313173 0.304982 0.258547 0.0402088 0.170932 
0.254763 0 0.269784 0.271278 0.275448 0 0 0 0.131668 
0 0 0 0 0.23495 0.179784 0.262112 0.0477637 0 
0.240527 0.270752 0.282306 0.102903 0.232333 0.221718 0.265483 0.223222 0.277554 
0.22435 0.298751 0.223663 0.232169 0.156026 0.0618704 0.267995 0.234499 0.22859 
0.232185 0.218455 0.222407 0.223399 0 0 0 0 0 
0 0 0.267039 0.268973 0.220418 0.232159 0.251978 0.232119 0.213331 
0.224357 0.232214 0.273129 0.251761 0.186444 0.267386 0.245841 0.242377 0.22534 
0.102163 0.232208 0.254298 0.0879939 0.242468 0.260871 0.261836 0.242263 0.25395 
0.26616 0.263111 0.253355 0.166057 0.166716 0.162526 0.173487 0.165224 0.155634 
0.144034 0.149713 0.159888 0.142921 0.150773 0.15473 0.128919 0.0434072 0.182181 
0 0 0.200385 0 0.216669 0.246057 0.117099 0 0 
0.241221 0 0 0.199206 0.160759 0 0 0 0.312307 
0 0.281772 0.252817 0.268646 0.0732044 0.246582 0.291614 0.228649 0.296267 
0 0.334509 0.140588 0.232076 0 0 0.12154 0.180386 0.0900827 
0.320737 0 0 0 0 0.324726 0.248886 0 0.302128 
0.0654936 0 0 0 0.282137 0.32655 0.315967 0.321924 0.334652 
0.105717 0 0 0 0.280956 0.293952 0.31607 0.330132 0.31819 
0.317393 0.248922 0.30253 0.331556 0.181307 0 0 0.317608 0.28922 
0.218627 0.322856 0 0.3253 0.318106 0.236608 0.286399 0.262856 0.301863 
0.311663 0.27939 0.306575 0.264324 0.32518 0.0587555 0.168354 0 0.178142 
0.197613 0.0940564 0.201508 0.261585 0 0.308913 0 0 0 
0 0 0 0 0.234288 0.254751 0.299942 0 0 
0 0.0785868 0 0 0 0 0 0 0 
0 0 0 0.178275 0.169755 0.245895 0.153265 0.222041 0.0823509 
0.0412829 0.300887 0.142032 0.0556497 0.285584 0.0436517 0 0.224132 0.278267 
0.167317 0.143927 0.306764 0.295407 0.312699 0.301351 0.298177 0.284558 0.156646 
0.205436 0.271957 0.252951 0.250846 0.230113 0.231881 0.237868 0.270296 0 
0 0 0 0 0 0 0.0280553 0.108287 0 
0 0.0184907 0.0685575 0.0300867 0 0.0149721 0 0.165822 0.0748117 
0 0.138803 0 0 0.300687 0 0.328596 0.284672 0 
0.340374 0.330123 0.31861 0.322976 0.338821 0.327409 0.32671 0.319036 0.301016 
0 0 0 0.320765 0.300107 0.255652 0.307752 0.294874 0.31486 
0.304407 0.128483 0.226183 0.24239 0.233612 0.267736 0.282691 0 0.0699416 
0 0.0624423 0.0655727 0.133244 0.0516976 0 0.334748 0 0.184696 
0 
_LABEL 1 946 string
(1)
(2)
(3)
(4)
(5)
(6)
(7)
(8)
(9)
(10)
(11)
(12)
(13)
(14)
(15)
(16)
(17)
(18)
(19)
(20)
(21)
(22)
(23)
(24)
(25)
(26)
(27)
(28)
(29)
(30)
(31)
(32)
(33)
(34)
(35)
(36)
(37)
(38)
(39)
(40)
(41)
(42)
(43)
(44)
(45)
(46)
(47)
(48)
(49)
(50)
(51)
(52)
(53)
(54)
(55)
(56)
(57)
(58)
(59)
(60)
(61)
(62)
(63)
(64)
(65)
(66)
(67)
(68)
(69)
(70)
(71)
(72)
(73)
(74)
(75)
(76)
(77)
(78)
(79)
(80)
(81)
(82)
(83)
(84)
(85)
(86)
(87)
(88)
(89)
(90)
(91)
(92)
(93)
(94)
(95)
(96)
(97)
(98)
(99)
(100)
(101)
(102)
(103)
(104)
(105)
(106)
(107)
(108)
(109)
(110)
(111)
(112)
(113)
(114)
(115)
(116)
(117)
(118)
(119)
(120)
(121)
(122)
(123)
(124)
(125)
(126)
(127)
(128)
(129)
(130)
(131)
(132)
(133)
(134)
(135)
(136)
(137)
(138)
(139)
(140)
(141)
(142)
(143)
(144)
(145)
(146)
(147)
(148)
(149)
(150)
(151)
(152)
(153)
(154)
(155)
(156)
(157)
(158)
(159)
(160)
(161)
(162)
(163)
(164)
(165)
(166)
(167)
(168)
(169)
(170)
(171)
(172)
(173)
(174)
(175)
(176)
(177)
(178)
(179)
(180)
(181)
(182)
(183)
(184)
(185)
(186)
(187)
(188)
(189)
(190)
(191)
(192)
(193)
(194)
(195)
(196)
(197)
(198)
(199)
(200)
(201)
(202)
(203)
(204)
(205)
(206)
(207)
(208)
(209)
(210)
(211)
(212)
(213)
(214)
(215)
(216)
(217)
(218)
(219)
(220)
(221)
(222)
(223)
(224)
(225)
(226)
(227)
(228)
(229)
(230)
(231)
(232)
(233)
(234)
(235)
(236)
(237)
(238)
(239)
(240)
(241)
(242)
(243)
(244)
(245)
(246)
(247)
(248)
(249)
(250)
(251)
(252)
(253)
(254)
(255)
(256)
(257)
(258)
(259)
(260)
(261)
(262)
(263)
(264)
(265)
(266)
(267)
(268)
(269)
(270)
(271)
(272)
(273)
(274)
(275)
(276)
(277)
(278)
(279)
(280)
(281)
(282)
(283)
(284)
(285)
(286)
(287)
(288)
(289)
(290)
(291)
(292)
(293)
(294)
(295)
(296)
(297)
(298)
(299)
(300)
(301)
(302)
(303)
(304)
(305)
(306)
(307)
(308)
(309)
(310)
(311)
(312)
(313)
(314)
(315)
(316)
(317)
(318)
(319)
(320)
(321)
(322)
(323)
(324)
(325)
(326)
(327)
(328)
(329)
(330)
(331)
(332)
(333)
(334)
(335)
(336)
(337)
(338)
(339)
(340)
(341)
(342)
(343)
(344)
(345)
(346)
(347)
(348)
(349)
(350)
(351)
(352)
(353)
(354)
(355)
(356)
(357)
(358)
(359)
(360)
(361)
(362)
(363)
(364)
(365)
(366)
(367)
(368)
(369)
(370)
(371)
(372)
(373)
(374)
(375)
(376)
(377)
(378)
(379)
(380)
(381)
(382)
(383)
(384)
(385)
(386)
(387)
(388)
(389)
(390)
(391)
(392)
(393)
(394)
(395)
(396)
(397)
(398)
(399)
(400)
(401)
(402)
(403)
(404)
(405)
(406)
(407)
(408)
(409)
(410)
(411)
(412)
(413)
(414)
(415)
(416)
(417)
(418)
(419)
(420)
(421)
(422)
(423)
(424)
(425)
(426)
(427)
(428)
(429)
(430)
(431)
(432)
(433)
(434)
(435)
(436)
(437)
(438)
(439)
(440)
(441)
(442)
(443)
(444)
(445)
(446)
(447)
(448)
(449)
(450)
(451)
(452)
(453)
(454)
(455)
(456)
(457)
(458)
(459)
(460)
(461)
(462)
(463)
(464)
(465)
(466)
(467)
(468)
(469)
(470)
(471)
(472)
(473)
(474)
(475)
(476)
(477)
(478)
(479)
(480)
(481)
(482)
(483)
(484)
(485)
(486)
(487)
(488)
(489)
(490)
(491)
(492)
(493)
(494)
(495)
(496)
(497)
(498)
(499)
(500)
(501)
(502)
(503)
(504)
(505)
(506)
(507)
(508)
(509)
(510)
(511)
(512)
(513)
(514)
(515)
(516)
(517)
(518)
(519)
(520)
(521)
(522)
(523)
(524)
(525)
(526)
(527)
(528)
(529)
(530)
(531)
(532)
(533)
(534)
(535)
(536)
(537)
(538)
(539)
(540)
(541)
(542)
(543)
(544)
(545)
(546)
(547)
(548)
(549)
(550)
(551)
(552)
(553)
(554)
(555)
(556)
(557)
(558)
(559)
(560)
(561)
(562)
(563)
(564)
(565)
(566)
(567)
(568)
(569)
(570)
(571)
(572)
(573)
(574)
(575)
(576)
(577)
(578)
(579)
(580)
(581)
(582)
(583)
(584)
(585)
(586)
(587)
(588)
(589)
(590)
(591)
(592)
(593)
(594)
(595)
(596)
(597)
(598)
(599)
(600)
(601)
(602)
(603)
(604)
(605)
(606)
(607)
(608)
(609)
(610)
(611)
(612)
(613)
(614)
(615)
(616)
(617)
(618)
(619)
(620)
(621)
(622)
(623)
(624)
(625)
(626)
(627)
(628)
(629)
(630)
(631)
(632)
(633)
(634)
(635)
(636)
(637)
(638)
(639)
(640)
(641)
(642)
(643)
(644)
(645)
(646)
(647)
(648)
(649)
(650)
(651)
(652)
(653)
(654)
(655)
(656)
(657)
(658)
(659)
(660)
(661)
(662)
(663)
(664)
(665)
(666)
(667)
(668)
(669)
(670)
(671)
(672)
(673)
(674)
(675)
(676)
(677)
(678)
(679)
(680)
(681)
(682)
(683)
(684)
(685)
(686)
(687)
(688)
(689)
(690)
(691)
(692)
(693)
(694)
(695)
(696)
(697)
(698)
(699)
(700)
(701)
(702)
(703)
(704)
(705)
(706)
(707)
(708)
(709)
(710)
(711)
(712)
(713)
(714)
(715)
(716)
(717)
(718)
(719)
(720)
(721)
(722)
(723)
(724)
(725)
(726)
(727)
(728)
(729)
(730)
(731)
(732)
(733)
(734)
(735)
(736)
(737)
(738)
(739)
(740)
(741)
(742)
(743)
(744)
(745)
(746)
(747)
(748)
(749)
(750)
(751)
(752)
(753)
(754)
(755)
(756)
(757)
(758)
(759)
(760)
(761)
(762)
(763)
(764)
(765)
(766)
(767)
(768)
(769)
(770)
(771)
(772)
(773)
(774)
(775)
(776)
(777)
(778)
(779)
(780)
(781)
(782)
(783)
(784)
(785)
(786)
(787)
(788)
(789)
(790)
(791)
(792)
(793)
(794)
(795)
(796)
(797)
(798)
(799)
(800)
(801)
(802)
(803)
(804)
(805)
(806)
(807)
(808)
(809)
(810)
(811)
(812)
(813)
(814)
(815)
(816)
(817)
(818)
(819)
(820)
(821)
(822)
(823)
(824)
(825)
(826)
(827)
(828)
(829)
(830)
(831)
(832)
(833)
(834)
(835)
(836)
(837)
(838)
(839)
(840)
(841)
(842)
(843)
(844)
(845)
(846)
(847)
(848)
(849)
(850)
(851)
(852)
(853)
(854)
(855)
(856)
(857)
(858)
(859)
(860)
(861)
(862)
(863)
(864)
(865)
(866)
(867)
(868)
(869)
(870)
(871)
(872)
(873)
(874)
(875)
(876)
(877)
(878)
(879)
(880)
(881)
(882)
(883)
(884)
(885)
(886)
(887)
(888)
(889)
(890)
(891)
(892)
(893)
(894)
(895)
(896)
(897)
(898)
(899)
(900)
(901)
(902)
(903)
(904)
(905)
(906)
(907)
(908)
(909)
(910)
(911)
(912)
(913)
(914)
(915)
(916)
(917)
(918)
(919)
(920)
(921)
(922)
(923)
(924)
(925)
(926)
(927)
(928)
(929)
(930)
(931)
(932)
(933)
(934)
(935)
(936)
(937)
(938)
(939)
(940)
(941)
(942)
(943)
(944)
(945)
(946)

